 Entering Link 1 = C:\G16W\l1.exe PID=     11120.
  
 Copyright (c) 1988-2017, Gaussian, Inc.  All Rights Reserved.
  
 This is part of the Gaussian(R) 16 program.  It is based on
 the Gaussian(R) 09 system (copyright 2009, Gaussian, Inc.),
 the Gaussian(R) 03 system (copyright 2003, Gaussian, Inc.),
 the Gaussian(R) 98 system (copyright 1998, Gaussian, Inc.),
 the Gaussian(R) 94 system (copyright 1995, Gaussian, Inc.),
 the Gaussian 92(TM) system (copyright 1992, Gaussian, Inc.),
 the Gaussian 90(TM) system (copyright 1990, Gaussian, Inc.),
 the Gaussian 88(TM) system (copyright 1988, Gaussian, Inc.),
 the Gaussian 86(TM) system (copyright 1986, Carnegie Mellon
 University), and the Gaussian 82(TM) system (copyright 1983,
 Carnegie Mellon University). Gaussian is a federally registered
 trademark of Gaussian, Inc.
  
 This software contains proprietary and confidential information,
 including trade secrets, belonging to Gaussian, Inc.
  
 This software is provided under written license and may be
 used, copied, transmitted, or stored only in accord with that
 written license.
  
 The following legend is applicable only to US Government
 contracts under FAR:
  
                    RESTRICTED RIGHTS LEGEND
  
 Use, reproduction and disclosure by the US Government is
 subject to restrictions as set forth in subparagraphs (a)
 and (c) of the Commercial Computer Software - Restricted
 Rights clause in FAR 52.227-19.
  
 Gaussian, Inc.
 340 Quinnipiac St., Bldg. 40, Wallingford CT 06492
  
  
 ---------------------------------------------------------------
 Warning -- This program may not be used in any manner that
 competes with the business of Gaussian, Inc. or will provide
 assistance to any competitor of Gaussian, Inc.  The licensee
 of this program is prohibited from giving any competitor of
 Gaussian, Inc. access to this program.  By using this program,
 the user acknowledges that Gaussian, Inc. is engaged in the
 business of creating and licensing software in the field of
 computational chemistry and represents and warrants to the
 licensee that it is not a competitor of Gaussian, Inc. and that
 it will not use this program in any manner prohibited above.
 ---------------------------------------------------------------
  

 Cite this work as:
 Gaussian 16, Revision B.01,
 M. J. Frisch, G. W. Trucks, H. B. Schlegel, G. E. Scuseria, 
 M. A. Robb, J. R. Cheeseman, G. Scalmani, V. Barone, 
 G. A. Petersson, H. Nakatsuji, X. Li, M. Caricato, A. V. Marenich, 
 J. Bloino, B. G. Janesko, R. Gomperts, B. Mennucci, H. P. Hratchian, 
 J. V. Ortiz, A. F. Izmaylov, J. L. Sonnenberg, D. Williams-Young, 
 F. Ding, F. Lipparini, F. Egidi, J. Goings, B. Peng, A. Petrone, 
 T. Henderson, D. Ranasinghe, V. G. Zakrzewski, J. Gao, N. Rega, 
 G. Zheng, W. Liang, M. Hada, M. Ehara, K. Toyota, R. Fukuda, 
 J. Hasegawa, M. Ishida, T. Nakajima, Y. Honda, O. Kitao, H. Nakai, 
 T. Vreven, K. Throssell, J. A. Montgomery, Jr., J. E. Peralta, 
 F. Ogliaro, M. J. Bearpark, J. J. Heyd, E. N. Brothers, K. N. Kudin, 
 V. N. Staroverov, T. A. Keith, R. Kobayashi, J. Normand, 
 K. Raghavachari, A. P. Rendell, J. C. Burant, S. S. Iyengar, 
 J. Tomasi, M. Cossi, J. M. Millam, M. Klene, C. Adamo, R. Cammi, 
 J. W. Ochterski, R. L. Martin, K. Morokuma, O. Farkas, 
 J. B. Foresman, and D. J. Fox, Gaussian, Inc., Wallingford CT, 2016.
 
 ******************************************
 Gaussian 16:  EM64W-G16RevB.01 16-Dec-2017
                16-Apr-2026 
 ******************************************
 %chk=D:\APPs\lihaibei\molecules-use\C2H4-D2h.chk
 --------------------------------
 # opt hf/6-31g geom=connectivity
 --------------------------------
 1/18=20,19=15,38=1,57=2/1,3;
 2/9=110,12=2,17=6,18=5,40=1/2;
 3/5=1,6=6,11=9,25=1,30=1,71=1/1,2,3;
 4//1;
 5/5=2,38=5/2;
 6/7=2,8=2,9=2,10=2,28=1/1;
 7//1,2,3,16;
 1/18=20,19=15/3(2);
 2/9=110/2;
 99//99;
 2/9=110/2;
 3/5=1,6=6,11=9,25=1,30=1,71=1/1,2,3;
 4/5=5,16=3,69=1/1;
 5/5=2,38=5/2;
 7//1,2,3,16;
 1/18=20,19=15/3(-5);
 2/9=110/2;
 6/7=2,8=2,9=2,10=2,19=2,28=1/1;
 99/9=1/99;
 -------------------
 Title Card Required
 -------------------
 Symbolic Z-matrix:
 Charge =  0 Multiplicity = 1
 C                    -0.66296   0.        0. 
 C                     0.66296   0.        0. 
 H                    -1.25654   0.92404   0. 
 H                    -1.25654  -0.92404   0. 
 H                     1.25654  -0.92404   0. 
 H                     1.25654   0.92404   0. 
 

 GradGradGradGradGradGradGradGradGradGradGradGradGradGradGradGradGradGrad
 Berny optimization.
 Initialization pass.
                           ----------------------------
                           !    Initial Parameters    !
                           ! (Angstroms and Degrees)  !
 --------------------------                            --------------------------
 ! Name  Definition              Value          Derivative Info.                !
 --------------------------------------------------------------------------------
 ! R1    R(1,2)                  1.3259         estimate D2E/DX2                !
 ! R2    R(1,3)                  1.0983         estimate D2E/DX2                !
 ! R3    R(1,4)                  1.0983         estimate D2E/DX2                !
 ! R4    R(2,5)                  1.0983         estimate D2E/DX2                !
 ! R5    R(2,6)                  1.0983         estimate D2E/DX2                !
 ! A1    A(2,1,3)              122.716          estimate D2E/DX2                !
 ! A2    A(2,1,4)              122.716          estimate D2E/DX2                !
 ! A3    A(3,1,4)              114.5681         estimate D2E/DX2                !
 ! A4    A(1,2,5)              122.716          estimate D2E/DX2                !
 ! A5    A(1,2,6)              122.716          estimate D2E/DX2                !
 ! A6    A(5,2,6)              114.5681         estimate D2E/DX2                !
 ! D1    D(3,1,2,5)            180.0            estimate D2E/DX2                !
 ! D2    D(3,1,2,6)              0.0            estimate D2E/DX2                !
 ! D3    D(4,1,2,5)              0.0            estimate D2E/DX2                !
 ! D4    D(4,1,2,6)            180.0            estimate D2E/DX2                !
 --------------------------------------------------------------------------------
 Trust Radius=3.00D-01 FncErr=1.00D-07 GrdErr=1.00D-07 EigMax=2.50D+02 EigMin=1.00D-04
 Number of steps in this run=     25 maximum allowed number of steps=    100.
 GradGradGradGradGradGradGradGradGradGradGradGradGradGradGradGradGradGrad

                          Input orientation:                          
 ---------------------------------------------------------------------
 Center     Atomic      Atomic             Coordinates (Angstroms)
 Number     Number       Type             X           Y           Z
 ---------------------------------------------------------------------
      1          6           0       -0.662958    0.000000    0.000000
      2          6           0        0.662958    0.000000    0.000000
      3          1           0       -1.256543    0.924038    0.000000
      4          1           0       -1.256543   -0.924038    0.000000
      5          1           0        1.256543   -0.924038    0.000000
      6          1           0        1.256543    0.924038    0.000000
 ---------------------------------------------------------------------
                    Distance matrix (angstroms):
                    1          2          3          4          5
     1  C    0.000000
     2  C    1.325916   0.000000
     3  H    1.098266   2.130336   0.000000
     4  H    1.098266   2.130336   1.848075   0.000000
     5  H    2.130336   1.098266   3.119453   2.513087   0.000000
     6  H    2.130336   1.098266   2.513087   3.119453   1.848075
                    6
     6  H    0.000000
 Stoichiometry    C2H4
 Framework group  D2H[C2"(C.C),SG(H4)]
 Deg. of freedom     3
 Full point group                 D2H     NOp   8
 Largest Abelian subgroup         D2H     NOp   8
 Largest concise Abelian subgroup D2      NOp   4
                         Standard orientation:                         
 ---------------------------------------------------------------------
 Center     Atomic      Atomic             Coordinates (Angstroms)
 Number     Number       Type             X           Y           Z
 ---------------------------------------------------------------------
      1          6           0        0.000000    0.000000    0.662958
      2          6           0        0.000000    0.000000   -0.662958
      3          1           0        0.000000    0.924038    1.256543
      4          1           0        0.000000   -0.924038    1.256543
      5          1           0        0.000000   -0.924038   -1.256543
      6          1           0        0.000000    0.924038   -1.256543
 ---------------------------------------------------------------------
 Rotational constants (GHZ):         146.8225775          29.8804903          24.8276991
 Standard basis: 6-31G (6D, 7F)
 There are     7 symmetry adapted cartesian basis functions of AG  symmetry.
 There are     0 symmetry adapted cartesian basis functions of B1G symmetry.
 There are     2 symmetry adapted cartesian basis functions of B2G symmetry.
 There are     4 symmetry adapted cartesian basis functions of B3G symmetry.
 There are     0 symmetry adapted cartesian basis functions of AU  symmetry.
 There are     7 symmetry adapted cartesian basis functions of B1U symmetry.
 There are     4 symmetry adapted cartesian basis functions of B2U symmetry.
 There are     2 symmetry adapted cartesian basis functions of B3U symmetry.
 There are     7 symmetry adapted basis functions of AG  symmetry.
 There are     0 symmetry adapted basis functions of B1G symmetry.
 There are     2 symmetry adapted basis functions of B2G symmetry.
 There are     4 symmetry adapted basis functions of B3G symmetry.
 There are     0 symmetry adapted basis functions of AU  symmetry.
 There are     7 symmetry adapted basis functions of B1U symmetry.
 There are     4 symmetry adapted basis functions of B2U symmetry.
 There are     2 symmetry adapted basis functions of B3U symmetry.
    26 basis functions,    60 primitive gaussians,    26 cartesian basis functions
     8 alpha electrons        8 beta electrons
       nuclear repulsion energy        33.2263348626 Hartrees.
 NAtoms=    6 NActive=    6 NUniq=    2 SFac= 4.00D+00 NAtFMM=   60 NAOKFM=F Big=F
 Integral buffers will be    131072 words long.
 Raffenetti 1 integral format.
 Two-electron integral symmetry is turned on.
 One-electron integrals computed using PRISM.
 NBasis=    26 RedAO= T EigKep=  9.47D-03  NBF=     7     0     2     4     0     7     4     2
 NBsUse=    26 1.00D-06 EigRej= -1.00D+00 NBFU=     7     0     2     4     0     7     4     2
 ExpMin= 1.61D-01 ExpMax= 3.05D+03 ExpMxC= 4.57D+02 IAcc=3 IRadAn=         5 AccDes= 0.00D+00
 Harris functional with IExCor=  205 and IRadAn=       5 diagonalized for initial guess.
 HarFok:  IExCor=  205 AccDes= 0.00D+00 IRadAn=         5 IDoV= 1 UseB2=F ITyADJ=14
 ICtDFT=  3500011 ScaDFX=  1.000000  1.000000  1.000000  1.000000
 FoFCou: FMM=F IPFlag=           0 FMFlag=      100000 FMFlg1=           0
         NFxFlg=           0 DoJE=T BraDBF=F KetDBF=T FulRan=T
         wScrn=  0.000000 ICntrl=       500 IOpCl=  0 I1Cent=   200000004 NGrid=           0
         NMat0=    1 NMatS0=      1 NMatT0=    0 NMatD0=    1 NMtDS0=    0 NMtDT0=    0
 Petite list used in FoFCou.
 Initial guess orbital symmetries:
       Occupied  (AG) (B1U) (AG) (B1U) (B2U) (AG) (B3G) (B3U)
       Virtual   (B2G) (B2U) (AG) (B1U) (B3G) (B1U) (AG) (B3U)
                 (B2U) (B2G) (B1U) (AG) (B3G) (B2U) (B1U) (AG)
                 (B1U) (B3G)
 The electronic state of the initial guess is 1-AG.
 Keep R1 ints in memory in symmetry-blocked form, NReq=876669.
 Requested convergence on RMS density matrix=1.00D-08 within 128 cycles.
 Requested convergence on MAX density matrix=1.00D-06.
 Requested convergence on             energy=1.00D-06.
 No special actions if energy rises.
 SCF Done:  E(RHF) =  -78.0026914329     A.U. after    9 cycles
            NFock=  9  Conv=0.58D-09     -V/T= 2.0008

 **********************************************************************

            Population analysis using the SCF Density.

 **********************************************************************

 Orbital symmetries:
       Occupied  (AG) (B1U) (AG) (B1U) (B2U) (AG) (B3G) (B3U)
       Virtual   (B2G) (AG) (B2U) (B1U) (B3G) (B1U) (AG) (B3U)
                 (B2U) (B2G) (AG) (B1U) (B3G) (B2U) (AG) (B1U)
                 (B1U) (B3G)
 The electronic state is 1-AG.
 Alpha  occ. eigenvalues --  -11.23618 -11.23448  -1.03377  -0.78523  -0.63284
 Alpha  occ. eigenvalues --   -0.58856  -0.49082  -0.37480
 Alpha virt. eigenvalues --    0.17562   0.26214   0.28232   0.29979   0.39004
 Alpha virt. eigenvalues --    0.49373   0.67919   0.78177   0.78431   0.88874
 Alpha virt. eigenvalues --    0.90045   0.99720   1.14213   1.17492   1.21899
 Alpha virt. eigenvalues --    1.22971   1.38776   1.49066
          Condensed to atoms (all electrons):
               1          2          3          4          5          6
     1  C    5.030482   0.591770   0.393729   0.393729  -0.040695  -0.040695
     2  C    0.591770   5.030482  -0.040695  -0.040695   0.393729   0.393729
     3  H    0.393729  -0.040695   0.511837  -0.028401   0.002635  -0.003264
     4  H    0.393729  -0.040695  -0.028401   0.511837  -0.003264   0.002635
     5  H   -0.040695   0.393729   0.002635  -0.003264   0.511837  -0.028401
     6  H   -0.040695   0.393729  -0.003264   0.002635  -0.028401   0.511837
 Mulliken charges:
               1
     1  C   -0.328320
     2  C   -0.328320
     3  H    0.164160
     4  H    0.164160
     5  H    0.164160
     6  H    0.164160
 Sum of Mulliken charges =   0.00000
 Mulliken charges with hydrogens summed into heavy atoms:
               1
     1  C    0.000000
     2  C    0.000000
 Electronic spatial extent (au):  <R**2>=             83.4389
 Charge=              0.0000 electrons
 Dipole moment (field-independent basis, Debye):
    X=              0.0000    Y=              0.0000    Z=              0.0000  Tot=              0.0000
 Quadrupole moment (field-independent basis, Debye-Ang):
   XX=            -15.6430   YY=            -12.4529   ZZ=            -12.0596
   XY=              0.0000   XZ=              0.0000   YZ=              0.0000
 Traceless Quadrupole moment (field-independent basis, Debye-Ang):
   XX=             -2.2578   YY=              0.9322   ZZ=              1.3256
   XY=              0.0000   XZ=              0.0000   YZ=              0.0000
 Octapole moment (field-independent basis, Debye-Ang**2):
  XXX=              0.0000  YYY=              0.0000  ZZZ=              0.0000  XYY=              0.0000
  XXY=              0.0000  XXZ=              0.0000  XZZ=              0.0000  YZZ=              0.0000
  YYZ=              0.0000  XYZ=              0.0000
 Hexadecapole moment (field-independent basis, Debye-Ang**3):
 XXXX=            -16.8071 YYYY=            -26.6137 ZZZZ=            -66.9935 XXXY=              0.0000
 XXXZ=              0.0000 YYYX=              0.0000 YYYZ=              0.0000 ZZZX=              0.0000
 ZZZY=              0.0000 XXYY=             -7.8390 XXZZ=            -15.1980 YYZZ=            -13.1667
 XXYZ=              0.0000 YYXZ=              0.0000 ZZXY=              0.0000
 N-N= 3.322633486264D+01 E-N=-2.476461904849D+02  KE= 7.794152669738D+01
 Symmetry AG   KE= 3.757602904529D+01
 Symmetry B1G  KE= 0.000000000000D+00
 Symmetry B2G  KE= 3.708277737740D-33
 Symmetry B3G  KE= 2.050348509107D+00
 Symmetry AU   KE= 0.000000000000D+00
 Symmetry B1U  KE= 3.453051240560D+01
 Symmetry B2U  KE= 1.834329440586D+00
 Symmetry B3U  KE= 1.950307296801D+00
 Calling FoFJK, ICntrl=      2127 FMM=F ISym2X=1 I1Cent= 0 IOpClX= 0 NMat=1 NMatS=1 NMatT=0.
 ***** Axes restored to original set *****
 -------------------------------------------------------------------
 Center     Atomic                   Forces (Hartrees/Bohr)
 Number     Number              X              Y              Z
 -------------------------------------------------------------------
      1        6          -0.013884557    0.000000000    0.000000000
      2        6           0.013884557    0.000000000    0.000000000
      3        1           0.011183650   -0.013057677    0.000000000
      4        1           0.011183650    0.013057677    0.000000000
      5        1          -0.011183650    0.013057677    0.000000000
      6        1          -0.011183650   -0.013057677    0.000000000
 -------------------------------------------------------------------
 Cartesian Forces:  Max     0.013884557 RMS     0.009332945

 GradGradGradGradGradGradGradGradGradGradGradGradGradGradGradGradGradGrad
 Berny optimization.
 FormGI is forming the generalized inverse of G from B-inverse, IUseBI=4.
 Internal  Forces:  Max     0.017030691 RMS     0.009179357
 Search for a local minimum.
 Step number   1 out of a maximum of   25
 All quantities printed in internal units (Hartrees-Bohrs-Radians)
 Mixed Optimization -- RFO/linear search
 Second derivative matrix not updated -- first step.
 The second derivative matrix:
                          R1        R2        R3        R4        R5
           R1           0.60481
           R2           0.00000   0.33875
           R3           0.00000   0.00000   0.33875
           R4           0.00000   0.00000   0.00000   0.33875
           R5           0.00000   0.00000   0.00000   0.00000   0.33875
           A1           0.00000   0.00000   0.00000   0.00000   0.00000
           A2           0.00000   0.00000   0.00000   0.00000   0.00000
           A3           0.00000   0.00000   0.00000   0.00000   0.00000
           A4           0.00000   0.00000   0.00000   0.00000   0.00000
           A5           0.00000   0.00000   0.00000   0.00000   0.00000
           A6           0.00000   0.00000   0.00000   0.00000   0.00000
           D1           0.00000   0.00000   0.00000   0.00000   0.00000
           D2           0.00000   0.00000   0.00000   0.00000   0.00000
           D3           0.00000   0.00000   0.00000   0.00000   0.00000
           D4           0.00000   0.00000   0.00000   0.00000   0.00000
                          A1        A2        A3        A4        A5
           A1           0.16000
           A2           0.00000   0.16000
           A3           0.00000   0.00000   0.16000
           A4           0.00000   0.00000   0.00000   0.16000
           A5           0.00000   0.00000   0.00000   0.00000   0.16000
           A6           0.00000   0.00000   0.00000   0.00000   0.00000
           D1           0.00000   0.00000   0.00000   0.00000   0.00000
           D2           0.00000   0.00000   0.00000   0.00000   0.00000
           D3           0.00000   0.00000   0.00000   0.00000   0.00000
           D4           0.00000   0.00000   0.00000   0.00000   0.00000
                          A6        D1        D2        D3        D4
           A6           0.16000
           D1           0.00000   0.03069
           D2           0.00000   0.00000   0.03069
           D3           0.00000   0.00000   0.00000   0.03069
           D4           0.00000   0.00000   0.00000   0.00000   0.03069
 ITU=  0
     Eigenvalues ---    0.03069   0.03069   0.03069   0.16000   0.16000
     Eigenvalues ---    0.16000   0.16000   0.33875   0.33875   0.33875
     Eigenvalues ---    0.33875   0.60481
 RFO step:  Lambda=-3.70027159D-03 EMin= 3.06874510D-02
 Linear search not attempted -- first point.
 Iteration  1 RMS(Cart)=  0.03090975 RMS(Int)=  0.00022338
 Iteration  2 RMS(Cart)=  0.00025546 RMS(Int)=  0.00000003
 Iteration  3 RMS(Cart)=  0.00000003 RMS(Int)=  0.00000000
 ClnCor:  largest displacement from symmetrization is 4.14D-14 for atom     2.
 Variable       Old X    -DE/DX   Delta X   Delta X   Delta X     New X
                                 (Linear)    (Quad)   (Total)
    R1        2.50562  -0.00848   0.00000  -0.01394  -0.01394   2.49168
    R2        2.07542  -0.01703   0.00000  -0.04973  -0.04973   2.02569
    R3        2.07542  -0.01703   0.00000  -0.04973  -0.04973   2.02569
    R4        2.07542  -0.01703   0.00000  -0.04973  -0.04973   2.02569
    R5        2.07542  -0.01703   0.00000  -0.04973  -0.04973   2.02569
    A1        2.14180  -0.00163   0.00000  -0.00994  -0.00994   2.13186
    A2        2.14180  -0.00163   0.00000  -0.00994  -0.00994   2.13186
    A3        1.99959   0.00325   0.00000   0.01988   0.01988   2.01947
    A4        2.14180  -0.00163   0.00000  -0.00994  -0.00994   2.13186
    A5        2.14180  -0.00163   0.00000  -0.00994  -0.00994   2.13186
    A6        1.99959   0.00325   0.00000   0.01988   0.01988   2.01947
    D1        3.14159   0.00000   0.00000   0.00000   0.00000   3.14159
    D2        0.00000   0.00000   0.00000   0.00000   0.00000   0.00000
    D3        0.00000   0.00000   0.00000   0.00000   0.00000   0.00000
    D4        3.14159   0.00000   0.00000   0.00000   0.00000   3.14159
         Item               Value     Threshold  Converged?
 Maximum Force            0.017031     0.000450     NO 
 RMS     Force            0.009179     0.000300     NO 
 Maximum Displacement     0.050845     0.001800     NO 
 RMS     Displacement     0.030868     0.001200     NO 
 Predicted change in Energy=-1.870990D-03
 GradGradGradGradGradGradGradGradGradGradGradGradGradGradGradGradGradGrad

                          Input orientation:                          
 ---------------------------------------------------------------------
 Center     Atomic      Atomic             Coordinates (Angstroms)
 Number     Number       Type             X           Y           Z
 ---------------------------------------------------------------------
      1          6           0       -0.659270    0.000000    0.000000
      2          6           0        0.659270    0.000000    0.000000
      3          1           0       -1.229638    0.907610    0.000000
      4          1           0       -1.229638   -0.907610    0.000000
      5          1           0        1.229638   -0.907610    0.000000
      6          1           0        1.229638    0.907610    0.000000
 ---------------------------------------------------------------------
                    Distance matrix (angstroms):
                    1          2          3          4          5
     1  C    0.000000
     2  C    1.318539   0.000000
     3  H    1.071949   2.095644   0.000000
     4  H    1.071949   2.095644   1.815219   0.000000
     5  H    2.095644   1.071949   3.056641   2.459275   0.000000
     6  H    2.095644   1.071949   2.459275   3.056641   1.815219
                    6
     6  H    0.000000
 Stoichiometry    C2H4
 Framework group  D2H[C2"(C.C),SG(H4)]
 Deg. of freedom     3
 Full point group                 D2H     NOp   8
 Largest Abelian subgroup         D2H     NOp   8
 Largest concise Abelian subgroup D2      NOp   4
                         Standard orientation:                         
 ---------------------------------------------------------------------
 Center     Atomic      Atomic             Coordinates (Angstroms)
 Number     Number       Type             X           Y           Z
 ---------------------------------------------------------------------
      1          6           0        0.000000    0.000000    0.659270
      2          6           0        0.000000    0.000000   -0.659270
      3          1           0        0.000000    0.907610    1.229638
      4          1           0        0.000000   -0.907610    1.229638
      5          1           0        0.000000   -0.907610   -1.229638
      6          1           0        0.000000    0.907610   -1.229638
 ---------------------------------------------------------------------
 Rotational constants (GHZ):         152.1857372          30.5796720          25.4631878
 Standard basis: 6-31G (6D, 7F)
 There are     7 symmetry adapted cartesian basis functions of AG  symmetry.
 There are     0 symmetry adapted cartesian basis functions of B1G symmetry.
 There are     2 symmetry adapted cartesian basis functions of B2G symmetry.
 There are     4 symmetry adapted cartesian basis functions of B3G symmetry.
 There are     0 symmetry adapted cartesian basis functions of AU  symmetry.
 There are     7 symmetry adapted cartesian basis functions of B1U symmetry.
 There are     4 symmetry adapted cartesian basis functions of B2U symmetry.
 There are     2 symmetry adapted cartesian basis functions of B3U symmetry.
 There are     7 symmetry adapted basis functions of AG  symmetry.
 There are     0 symmetry adapted basis functions of B1G symmetry.
 There are     2 symmetry adapted basis functions of B2G symmetry.
 There are     4 symmetry adapted basis functions of B3G symmetry.
 There are     0 symmetry adapted basis functions of AU  symmetry.
 There are     7 symmetry adapted basis functions of B1U symmetry.
 There are     4 symmetry adapted basis functions of B2U symmetry.
 There are     2 symmetry adapted basis functions of B3U symmetry.
    26 basis functions,    60 primitive gaussians,    26 cartesian basis functions
     8 alpha electrons        8 beta electrons
       nuclear repulsion energy        33.7158641940 Hartrees.
 NAtoms=    6 NActive=    6 NUniq=    2 SFac= 4.00D+00 NAtFMM=   60 NAOKFM=F Big=F
 Integral buffers will be    131072 words long.
 Raffenetti 1 integral format.
 Two-electron integral symmetry is turned on.
 One-electron integrals computed using PRISM.
 NBasis=    26 RedAO= T EigKep=  9.10D-03  NBF=     7     0     2     4     0     7     4     2
 NBsUse=    26 1.00D-06 EigRej= -1.00D+00 NBFU=     7     0     2     4     0     7     4     2
 Initial guess from the checkpoint file:  "D:\APPs\lihaibei\molecules-use\C2H4-D2h.chk"
 B after Tr=     0.000000    0.000000    0.000000
         Rot=    1.000000    0.000000    0.000000    0.000000 Ang=   0.00 deg.
 Initial guess orbital symmetries:
       Occupied  (AG) (B1U) (AG) (B1U) (B2U) (AG) (B3G) (B3U)
       Virtual   (B2G) (AG) (B2U) (B1U) (B3G) (B1U) (AG) (B3U)
                 (B2U) (B2G) (AG) (B1U) (B3G) (B2U) (AG) (B1U)
                 (B1U) (B3G)
 ExpMin= 1.61D-01 ExpMax= 3.05D+03 ExpMxC= 4.57D+02 IAcc=3 IRadAn=         5 AccDes= 0.00D+00
 Harris functional with IExCor=  205 and IRadAn=       5 diagonalized for initial guess.
 HarFok:  IExCor=  205 AccDes= 0.00D+00 IRadAn=         5 IDoV= 1 UseB2=F ITyADJ=14
 ICtDFT=  3500011 ScaDFX=  1.000000  1.000000  1.000000  1.000000
 FoFCou: FMM=F IPFlag=           0 FMFlag=      100000 FMFlg1=           0
         NFxFlg=           0 DoJE=T BraDBF=F KetDBF=T FulRan=T
         wScrn=  0.000000 ICntrl=       500 IOpCl=  0 I1Cent=   200000004 NGrid=           0
         NMat0=    1 NMatS0=      1 NMatT0=    0 NMatD0=    1 NMtDS0=    0 NMtDT0=    0
 Petite list used in FoFCou.
 Keep R1 ints in memory in symmetry-blocked form, NReq=876669.
 Requested convergence on RMS density matrix=1.00D-08 within 128 cycles.
 Requested convergence on MAX density matrix=1.00D-06.
 Requested convergence on             energy=1.00D-06.
 No special actions if energy rises.
 SCF Done:  E(RHF) =  -78.0044182345     A.U. after    8 cycles
            NFock=  8  Conv=0.11D-08     -V/T= 1.9985
 Calling FoFJK, ICntrl=      2127 FMM=F ISym2X=1 I1Cent= 0 IOpClX= 0 NMat=1 NMatS=1 NMatT=0.
 ***** Axes restored to original set *****
 -------------------------------------------------------------------
 Center     Atomic                   Forces (Hartrees/Bohr)
 Number     Number              X              Y              Z
 -------------------------------------------------------------------
      1        6          -0.003824424    0.000000000    0.000000000
      2        6           0.003824424    0.000000000    0.000000000
      3        1          -0.000329727    0.001759525    0.000000000
      4        1          -0.000329727   -0.001759525    0.000000000
      5        1           0.000329727   -0.001759525    0.000000000
      6        1           0.000329727    0.001759525    0.000000000
 -------------------------------------------------------------------
 Cartesian Forces:  Max     0.003824424 RMS     0.001528817

 GradGradGradGradGradGradGradGradGradGradGradGradGradGradGradGradGradGrad
 Berny optimization.
 Using GEDIIS/GDIIS optimizer.
 FormGI is forming the generalized inverse of G from B-inverse, IUseBI=4.
 Internal  Forces:  Max     0.004483879 RMS     0.001495747
 Search for a local minimum.
 Step number   2 out of a maximum of   25
 All quantities printed in internal units (Hartrees-Bohrs-Radians)
 Mixed Optimization -- RFO/linear search
 Update second derivatives using D2CorX and points    1    2
 DE= -1.73D-03 DEPred=-1.87D-03 R= 9.23D-01
 TightC=F SS=  1.41D+00  RLast= 1.06D-01 DXNew= 5.0454D-01 3.1853D-01
 Trust test= 9.23D-01 RLast= 1.06D-01 DXMaxT set to 3.19D-01
 The second derivative matrix:
                          R1        R2        R3        R4        R5
           R1           0.62698
           R2           0.02117   0.34767
           R3           0.02117   0.00892   0.34767
           R4           0.02117   0.00892   0.00892   0.34767
           R5           0.02117   0.00892   0.00892   0.00892   0.34767
           A1           0.00013  -0.00185  -0.00185  -0.00185  -0.00185
           A2           0.00013  -0.00185  -0.00185  -0.00185  -0.00185
           A3          -0.00027   0.00370   0.00370   0.00370   0.00370
           A4           0.00013  -0.00185  -0.00185  -0.00185  -0.00185
           A5           0.00013  -0.00185  -0.00185  -0.00185  -0.00185
           A6          -0.00027   0.00370   0.00370   0.00370   0.00370
           D1           0.00000   0.00000   0.00000   0.00000   0.00000
           D2           0.00000   0.00000   0.00000   0.00000   0.00000
           D3           0.00000   0.00000   0.00000   0.00000   0.00000
           D4           0.00000   0.00000   0.00000   0.00000   0.00000
                          A1        A2        A3        A4        A5
           A1           0.15966
           A2          -0.00034   0.15966
           A3           0.00069   0.00069   0.15862
           A4          -0.00034  -0.00034   0.00069   0.15966
           A5          -0.00034  -0.00034   0.00069  -0.00034   0.15966
           A6           0.00069   0.00069  -0.00138   0.00069   0.00069
           D1           0.00000   0.00000   0.00000   0.00000   0.00000
           D2           0.00000   0.00000   0.00000   0.00000   0.00000
           D3           0.00000   0.00000   0.00000   0.00000   0.00000
           D4           0.00000   0.00000   0.00000   0.00000   0.00000
                          A6        D1        D2        D3        D4
           A6           0.15862
           D1           0.00000   0.03069
           D2           0.00000   0.00000   0.03069
           D3           0.00000   0.00000   0.00000   0.03069
           D4           0.00000   0.00000   0.00000   0.00000   0.03069
 ITU=  1  0
 Use linear search instead of GDIIS.
     Eigenvalues ---    0.03069   0.03069   0.03069   0.15510   0.16000
     Eigenvalues ---    0.16000   0.16000   0.33875   0.33875   0.33875
     Eigenvalues ---    0.36828   0.63390
 RFO step:  Lambda=-4.27310772D-05 EMin= 3.06874510D-02
 Quartic linear search produced a step of -0.07920.
 Iteration  1 RMS(Cart)=  0.00338920 RMS(Int)=  0.00000609
 Iteration  2 RMS(Cart)=  0.00000668 RMS(Int)=  0.00000000
 Iteration  3 RMS(Cart)=  0.00000000 RMS(Int)=  0.00000000
 ClnCor:  largest displacement from symmetrization is 2.68D-14 for atom     3.
 Variable       Old X    -DE/DX   Delta X   Delta X   Delta X     New X
                                 (Linear)    (Quad)   (Total)
    R1        2.49168   0.00448   0.00110   0.00552   0.00662   2.49830
    R2        2.02569   0.00167   0.00394  -0.00028   0.00366   2.02935
    R3        2.02569   0.00167   0.00394  -0.00028   0.00366   2.02935
    R4        2.02569   0.00167   0.00394  -0.00028   0.00366   2.02935
    R5        2.02569   0.00167   0.00394  -0.00028   0.00366   2.02935
    A1        2.13186  -0.00044   0.00079  -0.00358  -0.00280   2.12906
    A2        2.13186  -0.00044   0.00079  -0.00358  -0.00280   2.12906
    A3        2.01947   0.00089  -0.00157   0.00716   0.00559   2.02506
    A4        2.13186  -0.00044   0.00079  -0.00358  -0.00280   2.12906
    A5        2.13186  -0.00044   0.00079  -0.00358  -0.00280   2.12906
    A6        2.01947   0.00089  -0.00157   0.00716   0.00559   2.02506
    D1        3.14159   0.00000   0.00000   0.00000   0.00000   3.14159
    D2        0.00000   0.00000   0.00000   0.00000   0.00000   0.00000
    D3        0.00000   0.00000   0.00000   0.00000   0.00000   0.00000
    D4        3.14159   0.00000   0.00000   0.00000   0.00000   3.14159
         Item               Value     Threshold  Converged?
 Maximum Force            0.004484     0.000450     NO 
 RMS     Force            0.001496     0.000300     NO 
 Maximum Displacement     0.006112     0.001800     NO 
 RMS     Displacement     0.003388     0.001200     NO 
 Predicted change in Energy=-3.493822D-05
 GradGradGradGradGradGradGradGradGradGradGradGradGradGradGradGradGradGrad

                          Input orientation:                          
 ---------------------------------------------------------------------
 Center     Atomic      Atomic             Coordinates (Angstroms)
 Number     Number       Type             X           Y           Z
 ---------------------------------------------------------------------
      1          6           0       -0.661022    0.000000    0.000000
      2          6           0        0.661022    0.000000    0.000000
      3          1           0       -1.229877    0.910844    0.000000
      4          1           0       -1.229877   -0.910844    0.000000
      5          1           0        1.229877   -0.910844    0.000000
      6          1           0        1.229877    0.910844    0.000000
 ---------------------------------------------------------------------
                    Distance matrix (angstroms):
                    1          2          3          4          5
     1  C    0.000000
     2  C    1.322044   0.000000
     3  H    1.073887   2.098842   0.000000
     4  H    1.073887   2.098842   1.821688   0.000000
     5  H    2.098842   1.073887   3.060872   2.459755   0.000000
     6  H    2.098842   1.073887   2.459755   3.060872   1.821688
                    6
     6  H    0.000000
 Stoichiometry    C2H4
 Framework group  D2H[C2"(C.C),SG(H4)]
 Deg. of freedom     3
 Full point group                 D2H     NOp   8
 Largest Abelian subgroup         D2H     NOp   8
 Largest concise Abelian subgroup D2      NOp   4
                         Standard orientation:                         
 ---------------------------------------------------------------------
 Center     Atomic      Atomic             Coordinates (Angstroms)
 Number     Number       Type             X           Y           Z
 ---------------------------------------------------------------------
      1          6           0        0.000000    0.000000    0.661022
      2          6           0        0.000000    0.000000   -0.661022
      3          1           0        0.000000    0.910844    1.229877
      4          1           0        0.000000   -0.910844    1.229877
      5          1           0        0.000000   -0.910844   -1.229877
      6          1           0        0.000000    0.910844   -1.229877
 ---------------------------------------------------------------------
 Rotational constants (GHZ):         151.1068095          30.4729086          25.3589114
 Standard basis: 6-31G (6D, 7F)
 There are     7 symmetry adapted cartesian basis functions of AG  symmetry.
 There are     0 symmetry adapted cartesian basis functions of B1G symmetry.
 There are     2 symmetry adapted cartesian basis functions of B2G symmetry.
 There are     4 symmetry adapted cartesian basis functions of B3G symmetry.
 There are     0 symmetry adapted cartesian basis functions of AU  symmetry.
 There are     7 symmetry adapted cartesian basis functions of B1U symmetry.
 There are     4 symmetry adapted cartesian basis functions of B2U symmetry.
 There are     2 symmetry adapted cartesian basis functions of B3U symmetry.
 There are     7 symmetry adapted basis functions of AG  symmetry.
 There are     0 symmetry adapted basis functions of B1G symmetry.
 There are     2 symmetry adapted basis functions of B2G symmetry.
 There are     4 symmetry adapted basis functions of B3G symmetry.
 There are     0 symmetry adapted basis functions of AU  symmetry.
 There are     7 symmetry adapted basis functions of B1U symmetry.
 There are     4 symmetry adapted basis functions of B2U symmetry.
 There are     2 symmetry adapted basis functions of B3U symmetry.
    26 basis functions,    60 primitive gaussians,    26 cartesian basis functions
     8 alpha electrons        8 beta electrons
       nuclear repulsion energy        33.6443174287 Hartrees.
 NAtoms=    6 NActive=    6 NUniq=    2 SFac= 4.00D+00 NAtFMM=   60 NAOKFM=F Big=F
 Integral buffers will be    131072 words long.
 Raffenetti 1 integral format.
 Two-electron integral symmetry is turned on.
 One-electron integrals computed using PRISM.
 NBasis=    26 RedAO= T EigKep=  9.20D-03  NBF=     7     0     2     4     0     7     4     2
 NBsUse=    26 1.00D-06 EigRej= -1.00D+00 NBFU=     7     0     2     4     0     7     4     2
 Initial guess from the checkpoint file:  "D:\APPs\lihaibei\molecules-use\C2H4-D2h.chk"
 B after Tr=     0.000000    0.000000    0.000000
         Rot=    1.000000    0.000000    0.000000    0.000000 Ang=   0.00 deg.
 Initial guess orbital symmetries:
       Occupied  (AG) (B1U) (AG) (B1U) (B2U) (AG) (B3G) (B3U)
       Virtual   (B2G) (AG) (B2U) (B1U) (B3G) (B1U) (AG) (B2U)
                 (B3U) (B2G) (AG) (B1U) (B3G) (B2U) (AG) (B1U)
                 (B1U) (B3G)
 Keep R1 ints in memory in symmetry-blocked form, NReq=876669.
 Requested convergence on RMS density matrix=1.00D-08 within 128 cycles.
 Requested convergence on MAX density matrix=1.00D-06.
 Requested convergence on             energy=1.00D-06.
 No special actions if energy rises.
 SCF Done:  E(RHF) =  -78.0044549759     A.U. after    7 cycles
            NFock=  7  Conv=0.14D-08     -V/T= 1.9988
 Calling FoFJK, ICntrl=      2127 FMM=F ISym2X=1 I1Cent= 0 IOpClX= 0 NMat=1 NMatS=1 NMatT=0.
 ***** Axes restored to original set *****
 -------------------------------------------------------------------
 Center     Atomic                   Forces (Hartrees/Bohr)
 Number     Number              X              Y              Z
 -------------------------------------------------------------------
      1        6          -0.000065154    0.000000000    0.000000000
      2        6           0.000065154    0.000000000    0.000000000
      3        1           0.000112647    0.000181340    0.000000000
      4        1           0.000112647   -0.000181340    0.000000000
      5        1          -0.000112647   -0.000181340    0.000000000
      6        1          -0.000112647    0.000181340    0.000000000
 -------------------------------------------------------------------
 Cartesian Forces:  Max     0.000181340 RMS     0.000102952

 GradGradGradGradGradGradGradGradGradGradGradGradGradGradGradGradGradGrad
 Berny optimization.
 Using GEDIIS/GDIIS optimizer.
 FormGI is forming the generalized inverse of G from B-inverse, IUseBI=4.
 Internal  Forces:  Max     0.000259221 RMS     0.000132333
 Search for a local minimum.
 Step number   3 out of a maximum of   25
 All quantities printed in internal units (Hartrees-Bohrs-Radians)
 Mixed Optimization -- En-DIIS/RFO-DIIS
 Update second derivatives using D2CorX and points    1    2    3
 DE= -3.67D-05 DEPred=-3.49D-05 R= 1.05D+00
 TightC=F SS=  1.41D+00  RLast= 1.38D-02 DXNew= 5.3570D-01 4.1489D-02
 Trust test= 1.05D+00 RLast= 1.38D-02 DXMaxT set to 3.19D-01
 The second derivative matrix:
                          R1        R2        R3        R4        R5
           R1           0.67255
           R2           0.03019   0.34937
           R3           0.03019   0.01063   0.34937
           R4           0.03019   0.01063   0.01063   0.34937
           R5           0.03019   0.01063   0.01063   0.01063   0.34937
           A1           0.00752   0.00075   0.00075   0.00075   0.00075
           A2           0.00752   0.00075   0.00075   0.00075   0.00075
           A3          -0.01505  -0.00150  -0.00150  -0.00150  -0.00150
           A4           0.00752   0.00075   0.00075   0.00075   0.00075
           A5           0.00752   0.00075   0.00075   0.00075   0.00075
           A6          -0.01505  -0.00150  -0.00150  -0.00150  -0.00150
           D1           0.00000   0.00000   0.00000   0.00000   0.00000
           D2           0.00000   0.00000   0.00000   0.00000   0.00000
           D3           0.00000   0.00000   0.00000   0.00000   0.00000
           D4           0.00000   0.00000   0.00000   0.00000   0.00000
                          A1        A2        A3        A4        A5
           A1           0.15784
           A2          -0.00216   0.15784
           A3           0.00431   0.00431   0.15137
           A4          -0.00216  -0.00216   0.00431   0.15784
           A5          -0.00216  -0.00216   0.00431  -0.00216   0.15784
           A6           0.00431   0.00431  -0.00863   0.00431   0.00431
           D1           0.00000   0.00000   0.00000   0.00000   0.00000
           D2           0.00000   0.00000   0.00000   0.00000   0.00000
           D3           0.00000   0.00000   0.00000   0.00000   0.00000
           D4           0.00000   0.00000   0.00000   0.00000   0.00000
                          A6        D1        D2        D3        D4
           A6           0.15137
           D1           0.00000   0.03069
           D2           0.00000   0.00000   0.03069
           D3           0.00000   0.00000   0.00000   0.03069
           D4           0.00000   0.00000   0.00000   0.00000   0.03069
 ITU=  1  1  0
 Use linear search instead of GDIIS.
     Eigenvalues ---    0.03069   0.03069   0.03069   0.13284   0.16000
     Eigenvalues ---    0.16000   0.16000   0.33875   0.33875   0.33875
     Eigenvalues ---    0.36924   0.68586
 RFO step:  Lambda=-1.30038750D-06 EMin= 3.06874510D-02
 Quartic linear search produced a step of  0.07312.
 Iteration  1 RMS(Cart)=  0.00105654 RMS(Int)=  0.00000051
 Iteration  2 RMS(Cart)=  0.00000051 RMS(Int)=  0.00000000
 ClnCor:  largest displacement from symmetrization is 2.19D-14 for atom     1.
 Variable       Old X    -DE/DX   Delta X   Delta X   Delta X     New X
                                 (Linear)    (Quad)   (Total)
    R1        2.49830  -0.00016   0.00048  -0.00064  -0.00016   2.49814
    R2        2.02935   0.00009   0.00027   0.00002   0.00028   2.02964
    R3        2.02935   0.00009   0.00027   0.00002   0.00028   2.02964
    R4        2.02935   0.00009   0.00027   0.00002   0.00028   2.02964
    R5        2.02935   0.00009   0.00027   0.00002   0.00028   2.02964
    A1        2.12906  -0.00013  -0.00020  -0.00076  -0.00097   2.12809
    A2        2.12906  -0.00013  -0.00020  -0.00076  -0.00097   2.12809
    A3        2.02506   0.00026   0.00041   0.00153   0.00194   2.02700
    A4        2.12906  -0.00013  -0.00020  -0.00076  -0.00097   2.12809
    A5        2.12906  -0.00013  -0.00020  -0.00076  -0.00097   2.12809
    A6        2.02506   0.00026   0.00041   0.00153   0.00194   2.02700
    D1        3.14159   0.00000   0.00000   0.00000   0.00000   3.14159
    D2        0.00000   0.00000   0.00000   0.00000   0.00000   0.00000
    D3        0.00000   0.00000   0.00000   0.00000   0.00000   0.00000
    D4        3.14159   0.00000   0.00000   0.00000   0.00000   3.14159
         Item               Value     Threshold  Converged?
 Maximum Force            0.000259     0.000450     YES
 RMS     Force            0.000132     0.000300     YES
 Maximum Displacement     0.001595     0.001800     YES
 RMS     Displacement     0.001057     0.001200     YES
 Predicted change in Energy=-8.153866D-07
 Optimization completed.
    -- Stationary point found.
                           ----------------------------
                           !   Optimized Parameters   !
                           ! (Angstroms and Degrees)  !
 --------------------------                            --------------------------
 ! Name  Definition              Value          Derivative Info.                !
 --------------------------------------------------------------------------------
 ! R1    R(1,2)                  1.322          -DE/DX =   -0.0002              !
 ! R2    R(1,3)                  1.0739         -DE/DX =    0.0001              !
 ! R3    R(1,4)                  1.0739         -DE/DX =    0.0001              !
 ! R4    R(2,5)                  1.0739         -DE/DX =    0.0001              !
 ! R5    R(2,6)                  1.0739         -DE/DX =    0.0001              !
 ! A1    A(2,1,3)              121.9863         -DE/DX =   -0.0001              !
 ! A2    A(2,1,4)              121.9863         -DE/DX =   -0.0001              !
 ! A3    A(3,1,4)              116.0274         -DE/DX =    0.0003              !
 ! A4    A(1,2,5)              121.9863         -DE/DX =   -0.0001              !
 ! A5    A(1,2,6)              121.9863         -DE/DX =   -0.0001              !
 ! A6    A(5,2,6)              116.0274         -DE/DX =    0.0003              !
 ! D1    D(3,1,2,5)            180.0            -DE/DX =    0.0                 !
 ! D2    D(3,1,2,6)              0.0            -DE/DX =    0.0                 !
 ! D3    D(4,1,2,5)              0.0            -DE/DX =    0.0                 !
 ! D4    D(4,1,2,6)            180.0            -DE/DX =    0.0                 !
 --------------------------------------------------------------------------------
 GradGradGradGradGradGradGradGradGradGradGradGradGradGradGradGradGradGrad

                          Input orientation:                          
 ---------------------------------------------------------------------
 Center     Atomic      Atomic             Coordinates (Angstroms)
 Number     Number       Type             X           Y           Z
 ---------------------------------------------------------------------
      1          6           0       -0.661022    0.000000    0.000000
      2          6           0        0.661022    0.000000    0.000000
      3          1           0       -1.229877    0.910844    0.000000
      4          1           0       -1.229877   -0.910844    0.000000
      5          1           0        1.229877   -0.910844    0.000000
      6          1           0        1.229877    0.910844    0.000000
 ---------------------------------------------------------------------
                    Distance matrix (angstroms):
                    1          2          3          4          5
     1  C    0.000000
     2  C    1.322044   0.000000
     3  H    1.073887   2.098842   0.000000
     4  H    1.073887   2.098842   1.821688   0.000000
     5  H    2.098842   1.073887   3.060872   2.459755   0.000000
     6  H    2.098842   1.073887   2.459755   3.060872   1.821688
                    6
     6  H    0.000000
 Stoichiometry    C2H4
 Framework group  D2H[C2"(C.C),SG(H4)]
 Deg. of freedom     3
 Full point group                 D2H     NOp   8
 Largest Abelian subgroup         D2H     NOp   8
 Largest concise Abelian subgroup D2      NOp   4
                         Standard orientation:                         
 ---------------------------------------------------------------------
 Center     Atomic      Atomic             Coordinates (Angstroms)
 Number     Number       Type             X           Y           Z
 ---------------------------------------------------------------------
      1          6           0        0.000000    0.000000    0.661022
      2          6           0        0.000000    0.000000   -0.661022
      3          1           0        0.000000    0.910844    1.229877
      4          1           0        0.000000   -0.910844    1.229877
      5          1           0        0.000000   -0.910844   -1.229877
      6          1           0        0.000000    0.910844   -1.229877
 ---------------------------------------------------------------------
 Rotational constants (GHZ):         151.1068095          30.4729086          25.3589114

 **********************************************************************

            Population analysis using the SCF Density.

 **********************************************************************

 Orbital symmetries:
       Occupied  (AG) (B1U) (AG) (B1U) (B2U) (AG) (B3G) (B3U)
       Virtual   (B2G) (AG) (B2U) (B1U) (B3G) (B1U) (AG) (B2U)
                 (B3U) (B2G) (AG) (B1U) (B3G) (B2U) (AG) (B1U)
                 (B1U) (B3G)
 The electronic state is 1-AG.
 Alpha  occ. eigenvalues --  -11.22883 -11.22708  -1.03851  -0.79229  -0.64363
 Alpha  occ. eigenvalues --   -0.58889  -0.49939  -0.37459
 Alpha virt. eigenvalues --    0.17725   0.26586   0.29106   0.30930   0.39211
 Alpha virt. eigenvalues --    0.49298   0.67544   0.78238   0.78278   0.89163
 Alpha virt. eigenvalues --    0.89455   1.00223   1.15740   1.19605   1.24376
 Alpha virt. eigenvalues --    1.25393   1.38987   1.51998
          Condensed to atoms (all electrons):
               1          2          3          4          5          6
     1  C    5.015684   0.599191   0.397241   0.397241  -0.041929  -0.041929
     2  C    0.599191   5.015684  -0.041929  -0.041929   0.397241   0.397241
     3  H    0.397241  -0.041929   0.510625  -0.028036   0.002904  -0.003554
     4  H    0.397241  -0.041929  -0.028036   0.510625  -0.003554   0.002904
     5  H   -0.041929   0.397241   0.002904  -0.003554   0.510625  -0.028036
     6  H   -0.041929   0.397241  -0.003554   0.002904  -0.028036   0.510625
 Mulliken charges:
               1
     1  C   -0.325499
     2  C   -0.325499
     3  H    0.162750
     4  H    0.162750
     5  H    0.162750
     6  H    0.162750
 Sum of Mulliken charges =   0.00000
 Mulliken charges with hydrogens summed into heavy atoms:
               1
     1  C    0.000000
     2  C    0.000000
 Electronic spatial extent (au):  <R**2>=             81.8867
 Charge=              0.0000 electrons
 Dipole moment (field-independent basis, Debye):
    X=              0.0000    Y=              0.0000    Z=              0.0000  Tot=              0.0000
 Quadrupole moment (field-independent basis, Debye-Ang):
   XX=            -15.5036   YY=            -12.3490   ZZ=            -12.1018
   XY=              0.0000   XZ=              0.0000   YZ=              0.0000
 Traceless Quadrupole moment (field-independent basis, Debye-Ang):
   XX=             -2.1855   YY=              0.9691   ZZ=              1.2163
   XY=              0.0000   XZ=              0.0000   YZ=              0.0000
 Octapole moment (field-independent basis, Debye-Ang**2):
  XXX=              0.0000  YYY=              0.0000  ZZZ=              0.0000  XYY=              0.0000
  XXY=              0.0000  XXZ=              0.0000  XZZ=              0.0000  YZZ=              0.0000
  YYZ=              0.0000  XYZ=              0.0000
 Hexadecapole moment (field-independent basis, Debye-Ang**3):
 XXXX=            -16.6067 YYYY=            -25.7211 ZZZZ=            -65.3956 XXXY=              0.0000
 XXXZ=              0.0000 YYYX=              0.0000 YYYZ=              0.0000 ZZZX=              0.0000
 ZZZY=              0.0000 XXYY=             -7.6201 XXZZ=            -14.7459 YYZZ=            -12.9728
 XXYZ=              0.0000 YYXZ=              0.0000 ZZXY=              0.0000
 N-N= 3.364431742871D+01 E-N=-2.486110478276D+02  KE= 7.809990933544D+01
 Symmetry AG   KE= 3.761936154215D+01
 Symmetry B1G  KE= 0.000000000000D+00
 Symmetry B2G  KE= 1.431784003165D-33
 Symmetry B3G  KE= 2.100697780761D+00
 Symmetry AU   KE= 0.000000000000D+00
 Symmetry B1U  KE= 3.456652531340D+01
 Symmetry B2U  KE= 1.865183876838D+00
 Symmetry B3U  KE= 1.948140822297D+00
 1|1|UNPC-WIN10-2T0259|FOpt|RHF|6-31G|C2H4|SDDX|16-Apr-2026|0||# opt hf
 /6-31g geom=connectivity||Title Card Required||0,1|C,-0.6610218495,0.,
 0.|C,0.6610218495,0.,0.|H,-1.2298773191,0.9108440268,0.|H,-1.229877319
 1,-0.9108440268,0.|H,1.2298773191,-0.9108440268,0.|H,1.2298773191,0.91
 08440268,0.||Version=EM64W-G16RevB.01|State=1-AG|HF=-78.004455|RMSD=1.
 382e-009|RMSF=1.030e-004|Dipole=0.,0.,0.|Quadrupole=0.9043199,0.720517
 6,-1.6248376,0.,0.,0.|PG=D02H [C2"(C1.C1),SG(H4)]||@


 SI MONUMENTUM REQUIRIS, CIRCUMSPICE
     -- FROM SIR CHRISTOPHER WREN'S TOMBSTONE
 Job cpu time:       0 days  0 hours  0 minutes  4.0 seconds.
 Elapsed time:       0 days  0 hours  0 minutes  2.4 seconds.
 File lengths (MBytes):  RWF=      6 Int=      0 D2E=      0 Chk=      1 Scr=      1
 Normal termination of Gaussian 16 at Thu Apr 16 10:43:55 2026.
