 Entering Link 1 = C:\G16W\l1.exe PID=     10860.
  
 Copyright (c) 1988-2017, Gaussian, Inc.  All Rights Reserved.
  
 This is part of the Gaussian(R) 16 program.  It is based on
 the Gaussian(R) 09 system (copyright 2009, Gaussian, Inc.),
 the Gaussian(R) 03 system (copyright 2003, Gaussian, Inc.),
 the Gaussian(R) 98 system (copyright 1998, Gaussian, Inc.),
 the Gaussian(R) 94 system (copyright 1995, Gaussian, Inc.),
 the Gaussian 92(TM) system (copyright 1992, Gaussian, Inc.),
 the Gaussian 90(TM) system (copyright 1990, Gaussian, Inc.),
 the Gaussian 88(TM) system (copyright 1988, Gaussian, Inc.),
 the Gaussian 86(TM) system (copyright 1986, Carnegie Mellon
 University), and the Gaussian 82(TM) system (copyright 1983,
 Carnegie Mellon University). Gaussian is a federally registered
 trademark of Gaussian, Inc.
  
 This software contains proprietary and confidential information,
 including trade secrets, belonging to Gaussian, Inc.
  
 This software is provided under written license and may be
 used, copied, transmitted, or stored only in accord with that
 written license.
  
 The following legend is applicable only to US Government
 contracts under FAR:
  
                    RESTRICTED RIGHTS LEGEND
  
 Use, reproduction and disclosure by the US Government is
 subject to restrictions as set forth in subparagraphs (a)
 and (c) of the Commercial Computer Software - Restricted
 Rights clause in FAR 52.227-19.
  
 Gaussian, Inc.
 340 Quinnipiac St., Bldg. 40, Wallingford CT 06492
  
  
 ---------------------------------------------------------------
 Warning -- This program may not be used in any manner that
 competes with the business of Gaussian, Inc. or will provide
 assistance to any competitor of Gaussian, Inc.  The licensee
 of this program is prohibited from giving any competitor of
 Gaussian, Inc. access to this program.  By using this program,
 the user acknowledges that Gaussian, Inc. is engaged in the
 business of creating and licensing software in the field of
 computational chemistry and represents and warrants to the
 licensee that it is not a competitor of Gaussian, Inc. and that
 it will not use this program in any manner prohibited above.
 ---------------------------------------------------------------
  

 Cite this work as:
 Gaussian 16, Revision B.01,
 M. J. Frisch, G. W. Trucks, H. B. Schlegel, G. E. Scuseria, 
 M. A. Robb, J. R. Cheeseman, G. Scalmani, V. Barone, 
 G. A. Petersson, H. Nakatsuji, X. Li, M. Caricato, A. V. Marenich, 
 J. Bloino, B. G. Janesko, R. Gomperts, B. Mennucci, H. P. Hratchian, 
 J. V. Ortiz, A. F. Izmaylov, J. L. Sonnenberg, D. Williams-Young, 
 F. Ding, F. Lipparini, F. Egidi, J. Goings, B. Peng, A. Petrone, 
 T. Henderson, D. Ranasinghe, V. G. Zakrzewski, J. Gao, N. Rega, 
 G. Zheng, W. Liang, M. Hada, M. Ehara, K. Toyota, R. Fukuda, 
 J. Hasegawa, M. Ishida, T. Nakajima, Y. Honda, O. Kitao, H. Nakai, 
 T. Vreven, K. Throssell, J. A. Montgomery, Jr., J. E. Peralta, 
 F. Ogliaro, M. J. Bearpark, J. J. Heyd, E. N. Brothers, K. N. Kudin, 
 V. N. Staroverov, T. A. Keith, R. Kobayashi, J. Normand, 
 K. Raghavachari, A. P. Rendell, J. C. Burant, S. S. Iyengar, 
 J. Tomasi, M. Cossi, J. M. Millam, M. Klene, C. Adamo, R. Cammi, 
 J. W. Ochterski, R. L. Martin, K. Morokuma, O. Farkas, 
 J. B. Foresman, and D. J. Fox, Gaussian, Inc., Wallingford CT, 2016.
 
 ******************************************
 Gaussian 16:  EM64W-G16RevB.01 16-Dec-2017
                16-Apr-2026 
 ******************************************
 %chk=D:\APPs\lihaibei\molecules-use\C3H4.chk
 --------------------------------
 # opt hf/6-31g geom=connectivity
 --------------------------------
 1/18=20,19=15,38=1,57=2/1,3;
 2/9=110,12=2,17=6,18=5,40=1/2;
 3/5=1,6=6,11=9,25=1,30=1,71=1/1,2,3;
 4//1;
 5/5=2,38=5/2;
 6/7=2,8=2,9=2,10=2,28=1/1;
 7//1,2,3,16;
 1/18=20,19=15/3(2);
 2/9=110/2;
 99//99;
 2/9=110/2;
 3/5=1,6=6,11=9,25=1,30=1,71=1/1,2,3;
 4/5=5,16=3,69=1/1;
 5/5=2,38=5/2;
 7//1,2,3,16;
 1/18=20,19=15/3(-5);
 2/9=110/2;
 6/7=2,8=2,9=2,10=2,19=2,28=1/1;
 99/9=1/99;
 -------------------
 Title Card Required
 -------------------
 Symbolic Z-matrix:
 Charge =  0 Multiplicity = 1
 C                     0.        0.       -1.3552 
 H                     0.        0.92665  -1.8902 
 H                     0.       -0.92665  -1.8902 
 C                     0.        0.        0. 
 C                     0.        0.        1.3552 
 H                    -0.92665   0.        1.8902 
 H                     0.92665   0.        1.8902 
 

 GradGradGradGradGradGradGradGradGradGradGradGradGradGradGradGradGradGrad
 Berny optimization.
 Initialization pass.
                           ----------------------------
                           !    Initial Parameters    !
                           ! (Angstroms and Degrees)  !
 --------------------------                            --------------------------
 ! Name  Definition              Value          Derivative Info.                !
 --------------------------------------------------------------------------------
 ! R1    R(1,2)                  1.07           estimate D2E/DX2                !
 ! R2    R(1,3)                  1.07           estimate D2E/DX2                !
 ! R3    R(1,4)                  1.3552         estimate D2E/DX2                !
 ! R4    R(4,5)                  1.3552         estimate D2E/DX2                !
 ! R5    R(5,6)                  1.07           estimate D2E/DX2                !
 ! R6    R(5,7)                  1.07           estimate D2E/DX2                !
 ! A1    A(2,1,3)              119.9998         estimate D2E/DX2                !
 ! A2    A(2,1,4)              120.0001         estimate D2E/DX2                !
 ! A3    A(3,1,4)              120.0001         estimate D2E/DX2                !
 ! A4    A(4,5,6)              120.0001         estimate D2E/DX2                !
 ! A5    A(4,5,7)              120.0001         estimate D2E/DX2                !
 ! A6    A(6,5,7)              119.9998         estimate D2E/DX2                !
 ! A7    L(1,4,5,2,-1)         180.0            estimate D2E/DX2                !
 ! A8    L(1,4,5,2,-2)         180.0            estimate D2E/DX2                !
 ! D1    D(2,1,5,6)             90.0            estimate D2E/DX2                !
 ! D2    D(2,1,5,7)            -90.0            estimate D2E/DX2                !
 ! D3    D(3,1,5,6)            -90.0            estimate D2E/DX2                !
 ! D4    D(3,1,5,7)             90.0            estimate D2E/DX2                !
 --------------------------------------------------------------------------------
 Trust Radius=3.00D-01 FncErr=1.00D-07 GrdErr=1.00D-07 EigMax=2.50D+02 EigMin=1.00D-04
 Number of steps in this run=     28 maximum allowed number of steps=    100.
 GradGradGradGradGradGradGradGradGradGradGradGradGradGradGradGradGradGrad

                          Input orientation:                          
 ---------------------------------------------------------------------
 Center     Atomic      Atomic             Coordinates (Angstroms)
 Number     Number       Type             X           Y           Z
 ---------------------------------------------------------------------
      1          6           0        0.000000    0.000000   -1.355200
      2          1           0        0.000000    0.926646   -1.890201
      3          1           0        0.000000   -0.926646   -1.890201
      4          6           0        0.000000    0.000000    0.000000
      5          6           0        0.000000    0.000000    1.355200
      6          1           0       -0.926646    0.000000    1.890201
      7          1           0        0.926646    0.000000    1.890201
 ---------------------------------------------------------------------
                    Distance matrix (angstroms):
                    1          2          3          4          5
     1  C    0.000000
     2  H    1.070000   0.000000
     3  H    1.070000   1.853292   0.000000
     4  C    1.355200   2.105121   2.105121   0.000000
     5  C    2.710400   3.375100   3.375100   1.355200   0.000000
     6  H    3.375100   4.001099   4.001099   2.105121   1.070000
     7  H    3.375100   4.001099   4.001099   2.105121   1.070000
                    6          7
     6  H    0.000000
     7  H    1.853292   0.000000
 Stoichiometry    C3H4
 Framework group  D2D[O(C),C2(C.C),2SGD(H2)]
 Deg. of freedom     3
 Full point group                 D2D     NOp   8
 Largest Abelian subgroup         C2V     NOp   4
 Largest concise Abelian subgroup C2V     NOp   4
                         Standard orientation:                         
 ---------------------------------------------------------------------
 Center     Atomic      Atomic             Coordinates (Angstroms)
 Number     Number       Type             X           Y           Z
 ---------------------------------------------------------------------
      1          6           0        0.000000    0.000000    1.355200
      2          1           0        0.000000    0.926646    1.890201
      3          1           0        0.000000   -0.926646    1.890201
      4          6           0        0.000000    0.000000    0.000000
      5          6           0        0.000000    0.000000   -1.355200
      6          1           0        0.926646    0.000000   -1.890201
      7          1           0       -0.926646    0.000000   -1.890201
 ---------------------------------------------------------------------
 Rotational constants (GHZ):         145.9971830           8.3933732           8.3933732
 Standard basis: 6-31G (6D, 7F)
 There are    19 symmetry adapted cartesian basis functions of A1  symmetry.
 There are     0 symmetry adapted cartesian basis functions of A2  symmetry.
 There are     8 symmetry adapted cartesian basis functions of B1  symmetry.
 There are     8 symmetry adapted cartesian basis functions of B2  symmetry.
 There are    19 symmetry adapted basis functions of A1  symmetry.
 There are     0 symmetry adapted basis functions of A2  symmetry.
 There are     8 symmetry adapted basis functions of B1  symmetry.
 There are     8 symmetry adapted basis functions of B2  symmetry.
    35 basis functions,    82 primitive gaussians,    35 cartesian basis functions
    11 alpha electrons       11 beta electrons
       nuclear repulsion energy        57.9085679799 Hartrees.
 NAtoms=    7 NActive=    7 NUniq=    3 SFac= 4.00D+00 NAtFMM=   60 NAOKFM=F Big=F
 Integral buffers will be    131072 words long.
 Raffenetti 1 integral format.
 Two-electron integral symmetry is turned on.
 One-electron integrals computed using PRISM.
 NBasis=    35 RedAO= T EigKep=  2.12D-03  NBF=    19     0     8     8
 NBsUse=    35 1.00D-06 EigRej= -1.00D+00 NBFU=    19     0     8     8
 ExpMin= 1.61D-01 ExpMax= 3.05D+03 ExpMxC= 4.57D+02 IAcc=3 IRadAn=         5 AccDes= 0.00D+00
 Harris functional with IExCor=  205 and IRadAn=       5 diagonalized for initial guess.
 HarFok:  IExCor=  205 AccDes= 0.00D+00 IRadAn=         5 IDoV= 1 UseB2=F ITyADJ=14
 ICtDFT=  3500011 ScaDFX=  1.000000  1.000000  1.000000  1.000000
 FoFCou: FMM=F IPFlag=           0 FMFlag=      100000 FMFlg1=           0
         NFxFlg=           0 DoJE=T BraDBF=F KetDBF=T FulRan=T
         wScrn=  0.000000 ICntrl=       500 IOpCl=  0 I1Cent=   200000004 NGrid=           0
         NMat0=    1 NMatS0=      1 NMatT0=    0 NMatD0=    1 NMtDS0=    0 NMtDT0=    0
 Petite list used in FoFCou.
 Initial guess orbital symmetries:
       Occupied  (B2) (A1) (A1) (A1) (B2) (A1) (B2) (E) (E) (E)
                 (E)
       Virtual   (E) (E) (A1) (B2) (E) (E) (A1) (B2) (A1) (E) (E)
                 (E) (E) (A1) (B2) (E) (E) (B2) (A1) (B2) (E) (E)
                 (A1) (B2)
 The electronic state of the initial guess is 1-A1.
 Keep R1 ints in memory in symmetry-blocked form, NReq=1018748.
 Requested convergence on RMS density matrix=1.00D-08 within 128 cycles.
 Requested convergence on MAX density matrix=1.00D-06.
 Requested convergence on             energy=1.00D-06.
 No special actions if energy rises.
 SCF Done:  E(RHF) =  -115.813613557     A.U. after   11 cycles
            NFock= 11  Conv=0.65D-09     -V/T= 2.0019

 **********************************************************************

            Population analysis using the SCF Density.

 **********************************************************************

 Orbital symmetries:
       Occupied  (A1) (B2) (A1) (A1) (B2) (A1) (B2) (E) (E) (E)
                 (E)
       Virtual   (E) (E) (A1) (B2) (E) (E) (A1) (B2) (A1) (E) (E)
                 (A1) (E) (E) (B2) (E) (E) (B2) (A1) (E) (E) (B2)
                 (A1) (B2)
 The electronic state is 1-A1.
 Alpha  occ. eigenvalues --  -11.28449 -11.24554 -11.24549  -1.05883  -0.95266
 Alpha  occ. eigenvalues --   -0.71380  -0.61441  -0.60970  -0.60970  -0.36519
 Alpha  occ. eigenvalues --   -0.36519
 Alpha virt. eigenvalues --    0.16656   0.16656   0.27000   0.28574   0.35958
 Alpha virt. eigenvalues --    0.35958   0.45016   0.48124   0.65252   0.77435
 Alpha virt. eigenvalues --    0.77435   0.88481   0.88928   0.88928   0.92652
 Alpha virt. eigenvalues --    1.08053   1.08053   1.21909   1.23918   1.26051
 Alpha virt. eigenvalues --    1.26051   1.27445   1.42518   1.47405
          Condensed to atoms (all electrons):
               1          2          3          4          5          6
     1  C    5.027292   0.386419   0.386419   0.624382  -0.043206   0.000269
     2  H    0.386419   0.477980  -0.022096  -0.035292   0.000269  -0.000030
     3  H    0.386419  -0.022096   0.477980  -0.035292   0.000269  -0.000030
     4  C    0.624382  -0.035292  -0.035292   4.899833   0.624382  -0.035292
     5  C   -0.043206   0.000269   0.000269   0.624382   5.027292   0.386419
     6  H    0.000269  -0.000030  -0.000030  -0.035292   0.386419   0.477980
     7  H    0.000269  -0.000030  -0.000030  -0.035292   0.386419  -0.022096
               7
     1  C    0.000269
     2  H   -0.000030
     3  H   -0.000030
     4  C   -0.035292
     5  C    0.386419
     6  H   -0.022096
     7  H    0.477980
 Mulliken charges:
               1
     1  C   -0.381844
     2  H    0.192779
     3  H    0.192779
     4  C   -0.007430
     5  C   -0.381844
     6  H    0.192779
     7  H    0.192779
 Sum of Mulliken charges =   0.00000
 Mulliken charges with hydrogens summed into heavy atoms:
               1
     1  C    0.003715
     4  C   -0.007430
     5  C    0.003715
 Electronic spatial extent (au):  <R**2>=            182.7469
 Charge=              0.0000 electrons
 Dipole moment (field-independent basis, Debye):
    X=              0.0000    Y=              0.0000    Z=              0.0000  Tot=              0.0000
 Quadrupole moment (field-independent basis, Debye-Ang):
   XX=            -19.6283   YY=            -19.6283   ZZ=            -15.5450
   XY=              0.0000   XZ=              0.0000   YZ=              0.0000
 Traceless Quadrupole moment (field-independent basis, Debye-Ang):
   XX=             -1.3611   YY=             -1.3611   ZZ=              2.7222
   XY=              0.0000   XZ=              0.0000   YZ=              0.0000
 Octapole moment (field-independent basis, Debye-Ang**2):
  XXX=              0.0000  YYY=              0.0000  ZZZ=              0.0000  XYY=              0.0000
  XXY=              0.0000  XXZ=             -3.7814  XZZ=              0.0000  YZZ=              0.0000
  YYZ=              3.7814  XYZ=              0.0000
 Hexadecapole moment (field-independent basis, Debye-Ang**3):
 XXXX=            -27.3178 YYYY=            -27.3178 ZZZZ=           -181.1459 XXXY=              0.0000
 XXXZ=              0.0000 YYYX=              0.0000 YYYZ=              0.0000 ZZZX=              0.0000
 ZZZY=              0.0000 XXYY=             -9.7991 XXZZ=            -35.4738 YYZZ=            -35.4738
 XXYZ=              0.0000 YYXZ=              0.0000 ZZXY=              0.0000
 N-N= 5.790856797988D+01 E-N=-3.849056770745D+02  KE= 1.155913036982D+02
 Symmetry A1   KE= 1.075911920479D+02
 Symmetry A2   KE= 0.000000000000D+00
 Symmetry B1   KE= 4.000055825149D+00
 Symmetry B2   KE= 4.000055825149D+00
 Calling FoFJK, ICntrl=      2127 FMM=F ISym2X=1 I1Cent= 0 IOpClX= 0 NMat=1 NMatS=1 NMatT=0.
 ***** Axes restored to original set *****
 -------------------------------------------------------------------
 Center     Atomic                   Forces (Hartrees/Bohr)
 Number     Number              X              Y              Z
 -------------------------------------------------------------------
      1        6           0.000000000    0.000000000    0.074417782
      2        1           0.000000000    0.000446275   -0.002572918
      3        1           0.000000000   -0.000446275   -0.002572918
      4        6           0.000000000    0.000000000    0.000000000
      5        6           0.000000000    0.000000000   -0.074417782
      6        1          -0.000446275    0.000000000    0.002572918
      7        1           0.000446275    0.000000000    0.002572918
 -------------------------------------------------------------------
 Cartesian Forces:  Max     0.074417782 RMS     0.022994087

 GradGradGradGradGradGradGradGradGradGradGradGradGradGradGradGradGradGrad
 Berny optimization.
 FormGI is forming the generalized inverse of G from B-inverse, IUseBI=4.
 Internal  Forces:  Max     0.069271946 RMS     0.023130447
 Search for a local minimum.
 Step number   1 out of a maximum of   28
 All quantities printed in internal units (Hartrees-Bohrs-Radians)
 Mixed Optimization -- RFO/linear search
 Second derivative matrix not updated -- first step.
 The second derivative matrix:
                          R1        R2        R3        R4        R5
           R1           0.37230
           R2           0.00000   0.37230
           R3           0.00000   0.00000   0.53930
           R4           0.00000   0.00000   0.00000   0.53930
           R5           0.00000   0.00000   0.00000   0.00000   0.37230
           R6           0.00000   0.00000   0.00000   0.00000   0.00000
           A1           0.00000   0.00000   0.00000   0.00000   0.00000
           A2           0.00000   0.00000   0.00000   0.00000   0.00000
           A3           0.00000   0.00000   0.00000   0.00000   0.00000
           A4           0.00000   0.00000   0.00000   0.00000   0.00000
           A5           0.00000   0.00000   0.00000   0.00000   0.00000
           A6           0.00000   0.00000   0.00000   0.00000   0.00000
           A7           0.00000   0.00000   0.00000   0.00000   0.00000
           A8           0.00000   0.00000   0.00000   0.00000   0.00000
           D1           0.00000   0.00000   0.00000   0.00000   0.00000
           D2           0.00000   0.00000   0.00000   0.00000   0.00000
           D3           0.00000   0.00000   0.00000   0.00000   0.00000
           D4           0.00000   0.00000   0.00000   0.00000   0.00000
                          R6        A1        A2        A3        A4
           R6           0.37230
           A1           0.00000   0.16000
           A2           0.00000   0.00000   0.16000
           A3           0.00000   0.00000   0.00000   0.16000
           A4           0.00000   0.00000   0.00000   0.00000   0.16000
           A5           0.00000   0.00000   0.00000   0.00000   0.00000
           A6           0.00000   0.00000   0.00000   0.00000   0.00000
           A7           0.00000   0.00000   0.00000   0.00000   0.00000
           A8           0.00000   0.00000   0.00000   0.00000   0.00000
           D1           0.00000   0.00000   0.00000   0.00000   0.00000
           D2           0.00000   0.00000   0.00000   0.00000   0.00000
           D3           0.00000   0.00000   0.00000   0.00000   0.00000
           D4           0.00000   0.00000   0.00000   0.00000   0.00000
                          A5        A6        A7        A8        D1
           A5           0.16000
           A6           0.00000   0.16000
           A7           0.00000   0.00000   0.02681
           A8           0.00000   0.00000   0.00000   0.02681
           D1           0.00000   0.00000   0.00000   0.00000   0.00230
           D2           0.00000   0.00000   0.00000   0.00000   0.00000
           D3           0.00000   0.00000   0.00000   0.00000   0.00000
           D4           0.00000   0.00000   0.00000   0.00000   0.00000
                          D2        D3        D4
           D2           0.00230
           D3           0.00000   0.00230
           D4           0.00000   0.00000   0.00230
 ITU=  0
     Eigenvalues ---    0.00230   0.00230   0.00230   0.02681   0.02681
     Eigenvalues ---    0.16000   0.16000   0.16000   0.16000   0.37230
     Eigenvalues ---    0.37230   0.37230   0.37230   0.53930   0.53930
 RFO step:  Lambda=-1.73920645D-02 EMin= 2.30000000D-03
 Linear search not attempted -- first point.
 Iteration  1 RMS(Cart)=  0.06604341 RMS(Int)=  0.00003064
 Iteration  2 RMS(Cart)=  0.00003168 RMS(Int)=  0.00000000
 Iteration  3 RMS(Cart)=  0.00000000 RMS(Int)=  0.00000000
 ClnCor:  largest displacement from symmetrization is 6.96D-14 for atom     7.
 Variable       Old X    -DE/DX   Delta X   Delta X   Delta X     New X
                                 (Linear)    (Quad)   (Total)
    R1        2.02201   0.00167   0.00000   0.00429   0.00429   2.02630
    R2        2.02201   0.00167   0.00000   0.00429   0.00429   2.02630
    R3        2.56096  -0.06927   0.00000  -0.12444  -0.12444   2.43652
    R4        2.56096  -0.06927   0.00000  -0.12444  -0.12444   2.43652
    R5        2.02201   0.00167   0.00000   0.00429   0.00429   2.02630
    R6        2.02201   0.00167   0.00000   0.00429   0.00429   2.02630
    A1        2.09439  -0.00270   0.00000  -0.01524  -0.01524   2.07916
    A2        2.09440   0.00135   0.00000   0.00762   0.00762   2.10202
    A3        2.09440   0.00135   0.00000   0.00762   0.00762   2.10202
    A4        2.09440   0.00135   0.00000   0.00762   0.00762   2.10202
    A5        2.09440   0.00135   0.00000   0.00762   0.00762   2.10202
    A6        2.09439  -0.00270   0.00000  -0.01524  -0.01524   2.07916
    A7        3.14159   0.00000   0.00000   0.00000   0.00000   3.14159
    A8        3.14159   0.00000   0.00000   0.00000   0.00000   3.14159
    D1        1.57080   0.00000   0.00000   0.00000   0.00000   1.57080
    D2       -1.57080   0.00000   0.00000   0.00000   0.00000  -1.57080
    D3       -1.57080   0.00000   0.00000   0.00000   0.00000  -1.57080
    D4        1.57080   0.00000   0.00000   0.00000   0.00000   1.57080
         Item               Value     Threshold  Converged?
 Maximum Force            0.069272     0.000450     NO 
 RMS     Force            0.023130     0.000300     NO 
 Maximum Displacement     0.124436     0.001800     NO 
 RMS     Displacement     0.066045     0.001200     NO 
 Predicted change in Energy=-8.972032D-03
 GradGradGradGradGradGradGradGradGradGradGradGradGradGradGradGradGradGrad

                          Input orientation:                          
 ---------------------------------------------------------------------
 Center     Atomic      Atomic             Coordinates (Angstroms)
 Number     Number       Type             X           Y           Z
 ---------------------------------------------------------------------
      1          6           0        0.000000    0.000000   -1.289352
      2          1           0        0.000000    0.924502   -1.832548
      3          1           0        0.000000   -0.924502   -1.832548
      4          6           0        0.000000    0.000000    0.000000
      5          6           0        0.000000    0.000000    1.289352
      6          1           0       -0.924502    0.000000    1.832548
      7          1           0        0.924502    0.000000    1.832548
 ---------------------------------------------------------------------
                    Distance matrix (angstroms):
                    1          2          3          4          5
     1  C    0.000000
     2  H    1.072271   0.000000
     3  H    1.072271   1.849004   0.000000
     4  C    1.289352   2.052543   2.052543   0.000000
     5  C    2.578703   3.255911   3.255911   1.289352   0.000000
     6  H    3.255911   3.891315   3.891315   2.052543   1.072271
     7  H    3.255911   3.891315   3.891315   2.052543   1.072271
                    6          7
     6  H    0.000000
     7  H    1.849004   0.000000
 Stoichiometry    C3H4
 Framework group  D2D[O(C),C2(C.C),2SGD(H2)]
 Deg. of freedom     3
 Full point group                 D2D     NOp   8
 Largest Abelian subgroup         C2V     NOp   4
 Largest concise Abelian subgroup C2V     NOp   4
                         Standard orientation:                         
 ---------------------------------------------------------------------
 Center     Atomic      Atomic             Coordinates (Angstroms)
 Number     Number       Type             X           Y           Z
 ---------------------------------------------------------------------
      1          6           0        0.000000    0.000000    1.289352
      2          1           0        0.000000    0.924502    1.832548
      3          1           0        0.000000   -0.924502    1.832548
      4          6           0        0.000000    0.000000    0.000000
      5          6           0        0.000000    0.000000   -1.289352
      6          1           0        0.924502    0.000000   -1.832548
      7          1           0       -0.924502    0.000000   -1.832548
 ---------------------------------------------------------------------
 Rotational constants (GHZ):         146.6751165           9.1622094           9.1622094
 Standard basis: 6-31G (6D, 7F)
 There are    19 symmetry adapted cartesian basis functions of A1  symmetry.
 There are     0 symmetry adapted cartesian basis functions of A2  symmetry.
 There are     8 symmetry adapted cartesian basis functions of B1  symmetry.
 There are     8 symmetry adapted cartesian basis functions of B2  symmetry.
 There are    19 symmetry adapted basis functions of A1  symmetry.
 There are     0 symmetry adapted basis functions of A2  symmetry.
 There are     8 symmetry adapted basis functions of B1  symmetry.
 There are     8 symmetry adapted basis functions of B2  symmetry.
    35 basis functions,    82 primitive gaussians,    35 cartesian basis functions
    11 alpha electrons       11 beta electrons
       nuclear repulsion energy        59.9867548633 Hartrees.
 NAtoms=    7 NActive=    7 NUniq=    3 SFac= 4.00D+00 NAtFMM=   60 NAOKFM=F Big=F
 Integral buffers will be    131072 words long.
 Raffenetti 1 integral format.
 Two-electron integral symmetry is turned on.
 One-electron integrals computed using PRISM.
 NBasis=    35 RedAO= T EigKep=  1.42D-03  NBF=    19     0     8     8
 NBsUse=    35 1.00D-06 EigRej= -1.00D+00 NBFU=    19     0     8     8
 Initial guess from the checkpoint file:  "D:\APPs\lihaibei\molecules-use\C3H4.chk"
 B after Tr=     0.000000    0.000000    0.000000
         Rot=    1.000000    0.000000    0.000000    0.000000 Ang=   0.00 deg.
 Initial guess orbital symmetries:
       Occupied  (A1) (B2) (A1) (A1) (B2) (A1) (B2) (E) (E) (E)
                 (E)
       Virtual   (E) (E) (A1) (B2) (E) (E) (A1) (B2) (A1) (E) (E)
                 (A1) (E) (E) (B2) (E) (E) (B2) (A1) (E) (E) (B2)
                 (A1) (B2)
 ExpMin= 1.61D-01 ExpMax= 3.05D+03 ExpMxC= 4.57D+02 IAcc=3 IRadAn=         5 AccDes= 0.00D+00
 Harris functional with IExCor=  205 and IRadAn=       5 diagonalized for initial guess.
 HarFok:  IExCor=  205 AccDes= 0.00D+00 IRadAn=         5 IDoV= 1 UseB2=F ITyADJ=14
 ICtDFT=  3500011 ScaDFX=  1.000000  1.000000  1.000000  1.000000
 FoFCou: FMM=F IPFlag=           0 FMFlag=      100000 FMFlg1=           0
         NFxFlg=           0 DoJE=T BraDBF=F KetDBF=T FulRan=T
         wScrn=  0.000000 ICntrl=       500 IOpCl=  0 I1Cent=   200000004 NGrid=           0
         NMat0=    1 NMatS0=      1 NMatT0=    0 NMatD0=    1 NMtDS0=    0 NMtDT0=    0
 Petite list used in FoFCou.
 Keep R1 ints in memory in symmetry-blocked form, NReq=1018782.
 Requested convergence on RMS density matrix=1.00D-08 within 128 cycles.
 Requested convergence on MAX density matrix=1.00D-06.
 Requested convergence on             energy=1.00D-06.
 No special actions if energy rises.
 SCF Done:  E(RHF) =  -115.820933084     A.U. after    9 cycles
            NFock=  9  Conv=0.98D-08     -V/T= 1.9984
 Calling FoFJK, ICntrl=      2127 FMM=F ISym2X=1 I1Cent= 0 IOpClX= 0 NMat=1 NMatS=1 NMatT=0.
 ***** Axes restored to original set *****
 -------------------------------------------------------------------
 Center     Atomic                   Forces (Hartrees/Bohr)
 Number     Number              X              Y              Z
 -------------------------------------------------------------------
      1        6           0.000000000    0.000000000   -0.010326122
      2        1           0.000000000   -0.000998101   -0.003504217
      3        1           0.000000000    0.000998101   -0.003504217
      4        6           0.000000000    0.000000000    0.000000000
      5        6           0.000000000    0.000000000    0.010326122
      6        1           0.000998101    0.000000000    0.003504217
      7        1          -0.000998101    0.000000000    0.003504217
 -------------------------------------------------------------------
 Cartesian Forces:  Max     0.010326122 RMS     0.003561437

 GradGradGradGradGradGradGradGradGradGradGradGradGradGradGradGradGradGrad
 Berny optimization.
 Using GEDIIS/GDIIS optimizer.
 FormGI is forming the generalized inverse of G from B-inverse, IUseBI=4.
 Internal  Forces:  Max     0.017334556 RMS     0.006112003
 Search for a local minimum.
 Step number   2 out of a maximum of   28
 All quantities printed in internal units (Hartrees-Bohrs-Radians)
 Mixed Optimization -- RFO/linear search
 Update second derivatives using D2CorX and points    1    2
 DE= -7.32D-03 DEPred=-8.97D-03 R= 8.16D-01
 TightC=F SS=  1.41D+00  RLast= 1.78D-01 DXNew= 5.0454D-01 5.3446D-01
 Trust test= 8.16D-01 RLast= 1.78D-01 DXMaxT set to 5.05D-01
 The second derivative matrix:
                          R1        R2        R3        R4        R5
           R1           0.37218
           R2          -0.00012   0.37218
           R3           0.00331   0.00331   0.62119
           R4           0.00331   0.00331   0.08189   0.62119
           R5          -0.00012  -0.00012   0.00331   0.00331   0.37218
           R6          -0.00012  -0.00012   0.00331   0.00331  -0.00012
           A1           0.00030   0.00030  -0.01803  -0.01803   0.00030
           A2          -0.00015  -0.00015   0.00901   0.00901  -0.00015
           A3          -0.00015  -0.00015   0.00901   0.00901  -0.00015
           A4          -0.00015  -0.00015   0.00901   0.00901  -0.00015
           A5          -0.00015  -0.00015   0.00901   0.00901  -0.00015
           A6           0.00030   0.00030  -0.01803  -0.01803   0.00030
           A7           0.00000   0.00000   0.00000   0.00000   0.00000
           A8           0.00000   0.00000   0.00000   0.00000   0.00000
           D1           0.00000   0.00000   0.00000   0.00000   0.00000
           D2           0.00000   0.00000   0.00000   0.00000   0.00000
           D3           0.00000   0.00000   0.00000   0.00000   0.00000
           D4           0.00000   0.00000   0.00000   0.00000   0.00000
                          R6        A1        A2        A3        A4
           R6           0.37218
           A1           0.00030   0.15985
           A2          -0.00015   0.00008   0.15996
           A3          -0.00015   0.00008  -0.00004   0.15996
           A4          -0.00015   0.00008  -0.00004  -0.00004   0.15996
           A5          -0.00015   0.00008  -0.00004  -0.00004  -0.00004
           A6           0.00030  -0.00015   0.00008   0.00008   0.00008
           A7           0.00000   0.00000   0.00000   0.00000   0.00000
           A8           0.00000   0.00000   0.00000   0.00000   0.00000
           D1           0.00000   0.00000   0.00000   0.00000   0.00000
           D2           0.00000   0.00000   0.00000   0.00000   0.00000
           D3           0.00000   0.00000   0.00000   0.00000   0.00000
           D4           0.00000   0.00000   0.00000   0.00000   0.00000
                          A5        A6        A7        A8        D1
           A5           0.15996
           A6           0.00008   0.15985
           A7           0.00000   0.00000   0.02681
           A8           0.00000   0.00000   0.00000   0.02681
           D1           0.00000   0.00000   0.00000   0.00000   0.00230
           D2           0.00000   0.00000   0.00000   0.00000   0.00000
           D3           0.00000   0.00000   0.00000   0.00000   0.00000
           D4           0.00000   0.00000   0.00000   0.00000   0.00000
                          D2        D3        D4
           D2           0.00230
           D3           0.00000   0.00230
           D4           0.00000   0.00000   0.00230
 ITU=  1  0
 Use linear search instead of GDIIS.
     Eigenvalues ---    0.00230   0.00230   0.00230   0.02681   0.02681
     Eigenvalues ---    0.15595   0.16000   0.16000   0.16000   0.37156
     Eigenvalues ---    0.37230   0.37230   0.37230   0.53930   0.70689
 RFO step:  Lambda=-4.28570143D-04 EMin= 2.30000000D-03
 Quartic linear search produced a step of -0.16407.
 Iteration  1 RMS(Cart)=  0.02256101 RMS(Int)=  0.00008859
 Iteration  2 RMS(Cart)=  0.00008898 RMS(Int)=  0.00000000
 Iteration  3 RMS(Cart)=  0.00000000 RMS(Int)=  0.00000000
 ClnCor:  largest displacement from symmetrization is 2.94D-13 for atom     2.
 Variable       Old X    -DE/DX   Delta X   Delta X   Delta X     New X
                                 (Linear)    (Quad)   (Total)
    R1        2.02630   0.00091  -0.00070   0.00308   0.00238   2.02868
    R2        2.02630   0.00091  -0.00070   0.00308   0.00238   2.02868
    R3        2.43652   0.01733   0.02042  -0.00100   0.01942   2.45594
    R4        2.43652   0.01733   0.02042  -0.00100   0.01942   2.45594
    R5        2.02630   0.00091  -0.00070   0.00308   0.00238   2.02868
    R6        2.02630   0.00091  -0.00070   0.00308   0.00238   2.02868
    A1        2.07916  -0.00476   0.00250  -0.02959  -0.02709   2.05206
    A2        2.10202   0.00238  -0.00125   0.01480   0.01355   2.11556
    A3        2.10202   0.00238  -0.00125   0.01480   0.01355   2.11556
    A4        2.10202   0.00238  -0.00125   0.01480   0.01355   2.11556
    A5        2.10202   0.00238  -0.00125   0.01480   0.01355   2.11556
    A6        2.07916  -0.00476   0.00250  -0.02959  -0.02709   2.05206
    A7        3.14159   0.00000   0.00000   0.00000   0.00000   3.14159
    A8        3.14159   0.00000   0.00000   0.00000   0.00000   3.14159
    D1        1.57080   0.00000   0.00000   0.00000   0.00000   1.57080
    D2       -1.57080   0.00000   0.00000   0.00000   0.00000  -1.57080
    D3       -1.57080   0.00000   0.00000   0.00000   0.00000  -1.57080
    D4        1.57080   0.00000   0.00000   0.00000   0.00000   1.57080
         Item               Value     Threshold  Converged?
 Maximum Force            0.017335     0.000450     NO 
 RMS     Force            0.006112     0.000300     NO 
 Maximum Displacement     0.044221     0.001800     NO 
 RMS     Displacement     0.022552     0.001200     NO 
 Predicted change in Energy=-5.662877D-04
 GradGradGradGradGradGradGradGradGradGradGradGradGradGradGradGradGradGrad

                          Input orientation:                          
 ---------------------------------------------------------------------
 Center     Atomic      Atomic             Coordinates (Angstroms)
 Number     Number       Type             X           Y           Z
 ---------------------------------------------------------------------
      1          6           0        0.000000    0.000000   -1.299627
      2          1           0        0.000000    0.918136   -1.855949
      3          1           0        0.000000   -0.918136   -1.855949
      4          6           0        0.000000    0.000000    0.000000
      5          6           0        0.000000    0.000000    1.299627
      6          1           0       -0.918136    0.000000    1.855949
      7          1           0        0.918136    0.000000    1.855949
 ---------------------------------------------------------------------
                    Distance matrix (angstroms):
                    1          2          3          4          5
     1  C    0.000000
     2  H    1.073531   0.000000
     3  H    1.073531   1.836273   0.000000
     4  C    1.299627   2.070633   2.070633   0.000000
     5  C    2.599254   3.286431   3.286431   1.299627   0.000000
     6  H    3.286431   3.932446   3.932446   2.070633   1.073531
     7  H    3.286431   3.932446   3.932446   2.070633   1.073531
                    6          7
     6  H    0.000000
     7  H    1.836273   0.000000
 Stoichiometry    C3H4
 Framework group  D2D[O(C),C2(C.C),2SGD(H2)]
 Deg. of freedom     3
 Full point group                 D2D     NOp   8
 Largest Abelian subgroup         C2V     NOp   4
 Largest concise Abelian subgroup C2V     NOp   4
                         Standard orientation:                         
 ---------------------------------------------------------------------
 Center     Atomic      Atomic             Coordinates (Angstroms)
 Number     Number       Type             X           Y           Z
 ---------------------------------------------------------------------
      1          6           0        0.000000    0.000000    1.299627
      2          1           0        0.000000    0.918136    1.855949
      3          1           0        0.000000   -0.918136    1.855949
      4          6           0        0.000000    0.000000    0.000000
      5          6           0        0.000000    0.000000   -1.299627
      6          1           0        0.918136    0.000000   -1.855949
      7          1           0       -0.918136    0.000000   -1.855949
 ---------------------------------------------------------------------
 Rotational constants (GHZ):         148.7160115           9.0050309           9.0050309
 Standard basis: 6-31G (6D, 7F)
 There are    19 symmetry adapted cartesian basis functions of A1  symmetry.
 There are     0 symmetry adapted cartesian basis functions of A2  symmetry.
 There are     8 symmetry adapted cartesian basis functions of B1  symmetry.
 There are     8 symmetry adapted cartesian basis functions of B2  symmetry.
 There are    19 symmetry adapted basis functions of A1  symmetry.
 There are     0 symmetry adapted basis functions of A2  symmetry.
 There are     8 symmetry adapted basis functions of B1  symmetry.
 There are     8 symmetry adapted basis functions of B2  symmetry.
    35 basis functions,    82 primitive gaussians,    35 cartesian basis functions
    11 alpha electrons       11 beta electrons
       nuclear repulsion energy        59.5888163556 Hartrees.
 NAtoms=    7 NActive=    7 NUniq=    3 SFac= 4.00D+00 NAtFMM=   60 NAOKFM=F Big=F
 Integral buffers will be    131072 words long.
 Raffenetti 1 integral format.
 Two-electron integral symmetry is turned on.
 One-electron integrals computed using PRISM.
 NBasis=    35 RedAO= T EigKep=  1.52D-03  NBF=    19     0     8     8
 NBsUse=    35 1.00D-06 EigRej= -1.00D+00 NBFU=    19     0     8     8
 Initial guess from the checkpoint file:  "D:\APPs\lihaibei\molecules-use\C3H4.chk"
 B after Tr=     0.000000    0.000000    0.000000
         Rot=    1.000000    0.000000    0.000000    0.000000 Ang=   0.00 deg.
 Initial guess orbital symmetries:
       Occupied  (A1) (B2) (A1) (A1) (B2) (A1) (B2) (E) (E) (E)
                 (E)
       Virtual   (E) (E) (A1) (B2) (E) (E) (B2) (A1) (A1) (E) (E)
                 (E) (E) (A1) (B2) (E) (E) (B2) (A1) (E) (E) (B2)
                 (A1) (B2)
 ExpMin= 1.61D-01 ExpMax= 3.05D+03 ExpMxC= 4.57D+02 IAcc=3 IRadAn=         5 AccDes= 0.00D+00
 Harris functional with IExCor=  205 and IRadAn=       5 diagonalized for initial guess.
 HarFok:  IExCor=  205 AccDes= 0.00D+00 IRadAn=         5 IDoV= 1 UseB2=F ITyADJ=14
 ICtDFT=  3500011 ScaDFX=  1.000000  1.000000  1.000000  1.000000
 FoFCou: FMM=F IPFlag=           0 FMFlag=      100000 FMFlg1=           0
         NFxFlg=           0 DoJE=T BraDBF=F KetDBF=T FulRan=T
         wScrn=  0.000000 ICntrl=       500 IOpCl=  0 I1Cent=   200000004 NGrid=           0
         NMat0=    1 NMatS0=      1 NMatT0=    0 NMatD0=    1 NMtDS0=    0 NMtDT0=    0
 Petite list used in FoFCou.
 Keep R1 ints in memory in symmetry-blocked form, NReq=1018782.
 Requested convergence on RMS density matrix=1.00D-08 within 128 cycles.
 Requested convergence on MAX density matrix=1.00D-06.
 Requested convergence on             energy=1.00D-06.
 No special actions if energy rises.
 SCF Done:  E(RHF) =  -115.821506192     A.U. after    9 cycles
            NFock=  9  Conv=0.12D-08     -V/T= 1.9991
 Calling FoFJK, ICntrl=      2127 FMM=F ISym2X=1 I1Cent= 0 IOpClX= 0 NMat=1 NMatS=1 NMatT=0.
 ***** Axes restored to original set *****
 -------------------------------------------------------------------
 Center     Atomic                   Forces (Hartrees/Bohr)
 Number     Number              X              Y              Z
 -------------------------------------------------------------------
      1        6           0.000000000    0.000000000    0.000929334
      2        1           0.000000000   -0.000318618   -0.000584913
      3        1           0.000000000    0.000318618   -0.000584913
      4        6           0.000000000    0.000000000    0.000000000
      5        6           0.000000000    0.000000000   -0.000929334
      6        1           0.000318618    0.000000000    0.000584913
      7        1          -0.000318618    0.000000000    0.000584913
 -------------------------------------------------------------------
 Cartesian Forces:  Max     0.000929334 RMS     0.000408358

 GradGradGradGradGradGradGradGradGradGradGradGradGradGradGradGradGradGrad
 Berny optimization.
 Using GEDIIS/GDIIS optimizer.
 FormGI is forming the generalized inverse of G from B-inverse, IUseBI=4.
 Internal  Forces:  Max     0.000899867 RMS     0.000376291
 Search for a local minimum.
 Step number   3 out of a maximum of   28
 All quantities printed in internal units (Hartrees-Bohrs-Radians)
 Mixed Optimization -- En-DIIS/RFO-DIIS
 Update second derivatives using D2CorX and points    1    2    3
 DE= -5.73D-04 DEPred=-5.66D-04 R= 1.01D+00
 TightC=F SS=  1.41D+00  RLast= 5.46D-02 DXNew= 8.4853D-01 1.6373D-01
 Trust test= 1.01D+00 RLast= 5.46D-02 DXMaxT set to 5.05D-01
 The second derivative matrix:
                          R1        R2        R3        R4        R5
           R1           0.37199
           R2          -0.00031   0.37199
           R3           0.00421   0.00421   0.68221
           R4           0.00421   0.00421   0.14292   0.68221
           R5          -0.00031  -0.00031   0.00421   0.00421   0.37199
           R6          -0.00031  -0.00031   0.00421   0.00421  -0.00031
           A1           0.00200   0.00200  -0.01270  -0.01270   0.00200
           A2          -0.00100  -0.00100   0.00635   0.00635  -0.00100
           A3          -0.00100  -0.00100   0.00635   0.00635  -0.00100
           A4          -0.00100  -0.00100   0.00635   0.00635  -0.00100
           A5          -0.00100  -0.00100   0.00635   0.00635  -0.00100
           A6           0.00200   0.00200  -0.01270  -0.01270   0.00200
           A7           0.00000   0.00000   0.00000   0.00000   0.00000
           A8           0.00000   0.00000   0.00000   0.00000   0.00000
           D1           0.00000   0.00000   0.00000   0.00000   0.00000
           D2           0.00000   0.00000   0.00000   0.00000   0.00000
           D3           0.00000   0.00000   0.00000   0.00000   0.00000
           D4           0.00000   0.00000   0.00000   0.00000   0.00000
                          R6        A1        A2        A3        A4
           R6           0.37199
           A1           0.00200   0.14838
           A2          -0.00100   0.00581   0.15710
           A3          -0.00100   0.00581  -0.00290   0.15710
           A4          -0.00100   0.00581  -0.00290  -0.00290   0.15710
           A5          -0.00100   0.00581  -0.00290  -0.00290  -0.00290
           A6           0.00200  -0.01162   0.00581   0.00581   0.00581
           A7           0.00000   0.00000   0.00000   0.00000   0.00000
           A8           0.00000   0.00000   0.00000   0.00000   0.00000
           D1           0.00000   0.00000   0.00000   0.00000   0.00000
           D2           0.00000   0.00000   0.00000   0.00000   0.00000
           D3           0.00000   0.00000   0.00000   0.00000   0.00000
           D4           0.00000   0.00000   0.00000   0.00000   0.00000
                          A5        A6        A7        A8        D1
           A5           0.15710
           A6           0.00581   0.14838
           A7           0.00000   0.00000   0.02681
           A8           0.00000   0.00000   0.00000   0.02681
           D1           0.00000   0.00000   0.00000   0.00000   0.00230
           D2           0.00000   0.00000   0.00000   0.00000   0.00000
           D3           0.00000   0.00000   0.00000   0.00000   0.00000
           D4           0.00000   0.00000   0.00000   0.00000   0.00000
                          D2        D3        D4
           D2           0.00230
           D3           0.00000   0.00230
           D4           0.00000   0.00000   0.00230
 ITU=  1  1  0
 Use linear search instead of GDIIS.
     Eigenvalues ---    0.00230   0.00230   0.00230   0.02681   0.02681
     Eigenvalues ---    0.12354   0.16000   0.16000   0.16000   0.37099
     Eigenvalues ---    0.37230   0.37230   0.37230   0.53930   0.82680
 RFO step:  Lambda=-1.28869066D-05 EMin= 2.30000000D-03
 Quartic linear search produced a step of  0.08551.
 Iteration  1 RMS(Cart)=  0.00348841 RMS(Int)=  0.00000642
 Iteration  2 RMS(Cart)=  0.00000642 RMS(Int)=  0.00000000
 Iteration  3 RMS(Cart)=  0.00000000 RMS(Int)=  0.00000000
 ClnCor:  largest displacement from symmetrization is 3.60D-13 for atom     7.
 Variable       Old X    -DE/DX   Delta X   Delta X   Delta X     New X
                                 (Linear)    (Quad)   (Total)
    R1        2.02868   0.00003   0.00020   0.00000   0.00021   2.02888
    R2        2.02868   0.00003   0.00020   0.00000   0.00021   2.02888
    R3        2.45594   0.00024   0.00166  -0.00170  -0.00004   2.45590
    R4        2.45594   0.00024   0.00166  -0.00170  -0.00004   2.45590
    R5        2.02868   0.00003   0.00020   0.00000   0.00021   2.02888
    R6        2.02868   0.00003   0.00020   0.00000   0.00021   2.02888
    A1        2.05206  -0.00090  -0.00232  -0.00501  -0.00733   2.04474
    A2        2.11556   0.00045   0.00116   0.00250   0.00366   2.11922
    A3        2.11556   0.00045   0.00116   0.00250   0.00366   2.11922
    A4        2.11556   0.00045   0.00116   0.00250   0.00366   2.11922
    A5        2.11556   0.00045   0.00116   0.00250   0.00366   2.11922
    A6        2.05206  -0.00090  -0.00232  -0.00501  -0.00733   2.04474
    A7        3.14159   0.00000   0.00000   0.00000   0.00000   3.14159
    A8        3.14159   0.00000   0.00000   0.00000   0.00000   3.14159
    D1        1.57080   0.00000   0.00000   0.00000   0.00000   1.57080
    D2       -1.57080   0.00000   0.00000   0.00000   0.00000  -1.57080
    D3       -1.57080   0.00000   0.00000   0.00000   0.00000  -1.57080
    D4        1.57080   0.00000   0.00000   0.00000   0.00000   1.57080
         Item               Value     Threshold  Converged?
 Maximum Force            0.000900     0.000450     NO 
 RMS     Force            0.000376     0.000300     NO 
 Maximum Displacement     0.006416     0.001800     NO 
 RMS     Displacement     0.003489     0.001200     NO 
 Predicted change in Energy=-9.734492D-06
 GradGradGradGradGradGradGradGradGradGradGradGradGradGradGradGradGradGrad

                          Input orientation:                          
 ---------------------------------------------------------------------
 Center     Atomic      Atomic             Coordinates (Angstroms)
 Number     Number       Type             X           Y           Z
 ---------------------------------------------------------------------
      1          6           0        0.000000    0.000000   -1.299606
      2          1           0        0.000000    0.916185   -1.859344
      3          1           0        0.000000   -0.916185   -1.859344
      4          6           0        0.000000    0.000000    0.000000
      5          6           0        0.000000    0.000000    1.299606
      6          1           0       -0.916185    0.000000    1.859344
      7          1           0        0.916185    0.000000    1.859344
 ---------------------------------------------------------------------
                    Distance matrix (angstroms):
                    1          2          3          4          5
     1  C    0.000000
     2  H    1.073639   0.000000
     3  H    1.073639   1.832370   0.000000
     4  C    1.299606   2.072813   2.072813   0.000000
     5  C    2.599213   3.289128   3.289128   1.299606   0.000000
     6  H    3.289128   3.937948   3.937948   2.072813   1.073639
     7  H    3.289128   3.937948   3.937948   2.072813   1.073639
                    6          7
     6  H    0.000000
     7  H    1.832370   0.000000
 Stoichiometry    C3H4
 Framework group  D2D[O(C),C2(C.C),2SGD(H2)]
 Deg. of freedom     3
 Full point group                 D2D     NOp   8
 Largest Abelian subgroup         C2V     NOp   4
 Largest concise Abelian subgroup C2V     NOp   4
                         Standard orientation:                         
 ---------------------------------------------------------------------
 Center     Atomic      Atomic             Coordinates (Angstroms)
 Number     Number       Type             X           Y           Z
 ---------------------------------------------------------------------
      1          6           0        0.000000    0.000000    1.299606
      2          1           0        0.000000    0.916185    1.859344
      3          1           0        0.000000   -0.916185    1.859344
      4          6           0        0.000000    0.000000    0.000000
      5          6           0        0.000000    0.000000   -1.299606
      6          1           0        0.916185    0.000000   -1.859344
      7          1           0       -0.916185    0.000000   -1.859344
 ---------------------------------------------------------------------
 Rotational constants (GHZ):         149.3501243           8.9982375           8.9982375
 Standard basis: 6-31G (6D, 7F)
 There are    19 symmetry adapted cartesian basis functions of A1  symmetry.
 There are     0 symmetry adapted cartesian basis functions of A2  symmetry.
 There are     8 symmetry adapted cartesian basis functions of B1  symmetry.
 There are     8 symmetry adapted cartesian basis functions of B2  symmetry.
 There are    19 symmetry adapted basis functions of A1  symmetry.
 There are     0 symmetry adapted basis functions of A2  symmetry.
 There are     8 symmetry adapted basis functions of B1  symmetry.
 There are     8 symmetry adapted basis functions of B2  symmetry.
    35 basis functions,    82 primitive gaussians,    35 cartesian basis functions
    11 alpha electrons       11 beta electrons
       nuclear repulsion energy        59.5790484064 Hartrees.
 NAtoms=    7 NActive=    7 NUniq=    3 SFac= 4.00D+00 NAtFMM=   60 NAOKFM=F Big=F
 Integral buffers will be    131072 words long.
 Raffenetti 1 integral format.
 Two-electron integral symmetry is turned on.
 One-electron integrals computed using PRISM.
 NBasis=    35 RedAO= T EigKep=  1.52D-03  NBF=    19     0     8     8
 NBsUse=    35 1.00D-06 EigRej= -1.00D+00 NBFU=    19     0     8     8
 Initial guess from the checkpoint file:  "D:\APPs\lihaibei\molecules-use\C3H4.chk"
 B after Tr=     0.000000    0.000000    0.000000
         Rot=    1.000000    0.000000    0.000000    0.000000 Ang=   0.00 deg.
 Initial guess orbital symmetries:
       Occupied  (A1) (B2) (A1) (A1) (B2) (A1) (B2) (E) (E) (E)
                 (E)
       Virtual   (E) (E) (A1) (B2) (E) (E) (B2) (A1) (A1) (E) (E)
                 (E) (E) (A1) (B2) (E) (E) (B2) (A1) (E) (E) (B2)
                 (A1) (B2)
 Keep R1 ints in memory in symmetry-blocked form, NReq=1018782.
 Requested convergence on RMS density matrix=1.00D-08 within 128 cycles.
 Requested convergence on MAX density matrix=1.00D-06.
 Requested convergence on             energy=1.00D-06.
 No special actions if energy rises.
 SCF Done:  E(RHF) =  -115.821516176     A.U. after    8 cycles
            NFock=  8  Conv=0.33D-08     -V/T= 1.9991
 Calling FoFJK, ICntrl=      2127 FMM=F ISym2X=1 I1Cent= 0 IOpClX= 0 NMat=1 NMatS=1 NMatT=0.
 ***** Axes restored to original set *****
 -------------------------------------------------------------------
 Center     Atomic                   Forces (Hartrees/Bohr)
 Number     Number              X              Y              Z
 -------------------------------------------------------------------
      1        6           0.000000000    0.000000000    0.000086453
      2        1           0.000000000    0.000006356   -0.000010191
      3        1           0.000000000   -0.000006356   -0.000010191
      4        6           0.000000000    0.000000000    0.000000000
      5        6           0.000000000    0.000000000   -0.000086453
      6        1          -0.000006356    0.000000000    0.000010191
      7        1           0.000006356    0.000000000    0.000010191
 -------------------------------------------------------------------
 Cartesian Forces:  Max     0.000086453 RMS     0.000027190

 GradGradGradGradGradGradGradGradGradGradGradGradGradGradGradGradGradGrad
 Berny optimization.
 Using GEDIIS/GDIIS optimizer.
 FormGI is forming the generalized inverse of G from B-inverse, IUseBI=4.
 Internal  Forces:  Max     0.000066070 RMS     0.000022792
 Search for a local minimum.
 Step number   4 out of a maximum of   28
 All quantities printed in internal units (Hartrees-Bohrs-Radians)
 Mixed Optimization -- En-DIIS/RFO-DIIS
 Swapping is turned off.
 Update second derivatives using D2CorX and points    1    2    3    4
 DE= -9.98D-06 DEPred=-9.73D-06 R= 1.03D+00
 TightC=F SS=  1.41D+00  RLast= 1.27D-02 DXNew= 8.4853D-01 3.8085D-02
 Trust test= 1.03D+00 RLast= 1.27D-02 DXMaxT set to 5.05D-01
 The second derivative matrix:
                          R1        R2        R3        R4        R5
           R1           0.37206
           R2          -0.00024   0.37206
           R3           0.00409   0.00409   0.66034
           R4           0.00409   0.00409   0.12105   0.66034
           R5          -0.00024  -0.00024   0.00409   0.00409   0.37206
           R6          -0.00024  -0.00024   0.00409   0.00409  -0.00024
           A1           0.00255   0.00255  -0.01517  -0.01517   0.00255
           A2          -0.00127  -0.00127   0.00758   0.00758  -0.00127
           A3          -0.00127  -0.00127   0.00758   0.00758  -0.00127
           A4          -0.00127  -0.00127   0.00758   0.00758  -0.00127
           A5          -0.00127  -0.00127   0.00758   0.00758  -0.00127
           A6           0.00255   0.00255  -0.01517  -0.01517   0.00255
           A7           0.00000   0.00000   0.00000   0.00000   0.00000
           A8           0.00000   0.00000   0.00000   0.00000   0.00000
           D1           0.00000   0.00000   0.00000   0.00000   0.00000
           D2           0.00000   0.00000   0.00000   0.00000   0.00000
           D3           0.00000   0.00000   0.00000   0.00000   0.00000
           D4           0.00000   0.00000   0.00000   0.00000   0.00000
                          R6        A1        A2        A3        A4
           R6           0.37206
           A1           0.00255   0.14743
           A2          -0.00127   0.00628   0.15686
           A3          -0.00127   0.00628  -0.00314   0.15686
           A4          -0.00127   0.00628  -0.00314  -0.00314   0.15686
           A5          -0.00127   0.00628  -0.00314  -0.00314  -0.00314
           A6           0.00255  -0.01257   0.00628   0.00628   0.00628
           A7           0.00000   0.00000   0.00000   0.00000   0.00000
           A8           0.00000   0.00000   0.00000   0.00000   0.00000
           D1           0.00000   0.00000   0.00000   0.00000   0.00000
           D2           0.00000   0.00000   0.00000   0.00000   0.00000
           D3           0.00000   0.00000   0.00000   0.00000   0.00000
           D4           0.00000   0.00000   0.00000   0.00000   0.00000
                          A5        A6        A7        A8        D1
           A5           0.15686
           A6           0.00628   0.14743
           A7           0.00000   0.00000   0.02681
           A8           0.00000   0.00000   0.00000   0.02681
           D1           0.00000   0.00000   0.00000   0.00000   0.00230
           D2           0.00000   0.00000   0.00000   0.00000   0.00000
           D3           0.00000   0.00000   0.00000   0.00000   0.00000
           D4           0.00000   0.00000   0.00000   0.00000   0.00000
                          D2        D3        D4
           D2           0.00230
           D3           0.00000   0.00230
           D4           0.00000   0.00000   0.00230
 ITU=  1  1  1  0
     Eigenvalues ---    0.00230   0.00230   0.00230   0.02681   0.02681
     Eigenvalues ---    0.11985   0.16000   0.16000   0.16000   0.37139
     Eigenvalues ---    0.37230   0.37230   0.37230   0.53930   0.78377
 En-DIIS/RFO-DIIS/Sim-DIIS IScMMF=       -3 using points:     4    3
 RFO step:  Lambda=-1.35501145D-08.
 DidBck=F Rises=F RFO-DIIS coefs:    1.01175   -0.01175
 Iteration  1 RMS(Cart)=  0.00003109 RMS(Int)=  0.00000000
 Iteration  2 RMS(Cart)=  0.00000000 RMS(Int)=  0.00000000
 ClnCor:  largest displacement from symmetrization is 3.68D-13 for atom     7.
 Variable       Old X    -DE/DX   Delta X   Delta X   Delta X     New X
                                 (Linear)    (Quad)   (Total)
    R1        2.02888   0.00001   0.00000   0.00003   0.00003   2.02892
    R2        2.02888   0.00001   0.00000   0.00003   0.00003   2.02892
    R3        2.45590  -0.00007   0.00000  -0.00009  -0.00009   2.45581
    R4        2.45590  -0.00007   0.00000  -0.00009  -0.00009   2.45581
    R5        2.02888   0.00001   0.00000   0.00003   0.00003   2.02892
    R6        2.02888   0.00001   0.00000   0.00003   0.00003   2.02892
    A1        2.04474  -0.00001  -0.00009   0.00000  -0.00008   2.04465
    A2        2.11922   0.00000   0.00004   0.00000   0.00004   2.11927
    A3        2.11922   0.00000   0.00004   0.00000   0.00004   2.11927
    A4        2.11922   0.00000   0.00004   0.00000   0.00004   2.11927
    A5        2.11922   0.00000   0.00004   0.00000   0.00004   2.11927
    A6        2.04474  -0.00001  -0.00009   0.00000  -0.00008   2.04465
    A7        3.14159   0.00000   0.00000   0.00000   0.00000   3.14159
    A8        3.14159   0.00000   0.00000   0.00000   0.00000   3.14159
    D1        1.57080   0.00000   0.00000   0.00000   0.00000   1.57080
    D2       -1.57080   0.00000   0.00000   0.00000   0.00000  -1.57080
    D3       -1.57080   0.00000   0.00000   0.00000   0.00000  -1.57080
    D4        1.57080   0.00000   0.00000   0.00000   0.00000   1.57080
         Item               Value     Threshold  Converged?
 Maximum Force            0.000066     0.000450     YES
 RMS     Force            0.000023     0.000300     YES
 Maximum Displacement     0.000090     0.001800     YES
 RMS     Displacement     0.000031     0.001200     YES
 Predicted change in Energy=-7.582304D-09
 Optimization completed.
    -- Stationary point found.
                           ----------------------------
                           !   Optimized Parameters   !
                           ! (Angstroms and Degrees)  !
 --------------------------                            --------------------------
 ! Name  Definition              Value          Derivative Info.                !
 --------------------------------------------------------------------------------
 ! R1    R(1,2)                  1.0736         -DE/DX =    0.0                 !
 ! R2    R(1,3)                  1.0736         -DE/DX =    0.0                 !
 ! R3    R(1,4)                  1.2996         -DE/DX =   -0.0001              !
 ! R4    R(4,5)                  1.2996         -DE/DX =   -0.0001              !
 ! R5    R(5,6)                  1.0736         -DE/DX =    0.0                 !
 ! R6    R(5,7)                  1.0736         -DE/DX =    0.0                 !
 ! A1    A(2,1,3)              117.1548         -DE/DX =    0.0                 !
 ! A2    A(2,1,4)              121.4226         -DE/DX =    0.0                 !
 ! A3    A(3,1,4)              121.4226         -DE/DX =    0.0                 !
 ! A4    A(4,5,6)              121.4226         -DE/DX =    0.0                 !
 ! A5    A(4,5,7)              121.4226         -DE/DX =    0.0                 !
 ! A6    A(6,5,7)              117.1548         -DE/DX =    0.0                 !
 ! A7    L(1,4,5,2,-1)         180.0            -DE/DX =    0.0                 !
 ! A8    L(1,4,5,2,-2)         180.0            -DE/DX =    0.0                 !
 ! D1    D(2,1,5,6)             90.0            -DE/DX =    0.0                 !
 ! D2    D(2,1,5,7)            -90.0            -DE/DX =    0.0                 !
 ! D3    D(3,1,5,6)            -90.0            -DE/DX =    0.0                 !
 ! D4    D(3,1,5,7)             90.0            -DE/DX =    0.0                 !
 --------------------------------------------------------------------------------
 GradGradGradGradGradGradGradGradGradGradGradGradGradGradGradGradGradGrad

                          Input orientation:                          
 ---------------------------------------------------------------------
 Center     Atomic      Atomic             Coordinates (Angstroms)
 Number     Number       Type             X           Y           Z
 ---------------------------------------------------------------------
      1          6           0        0.000000    0.000000   -1.299606
      2          1           0        0.000000    0.916185   -1.859344
      3          1           0        0.000000   -0.916185   -1.859344
      4          6           0        0.000000    0.000000    0.000000
      5          6           0        0.000000    0.000000    1.299606
      6          1           0       -0.916185    0.000000    1.859344
      7          1           0        0.916185    0.000000    1.859344
 ---------------------------------------------------------------------
                    Distance matrix (angstroms):
                    1          2          3          4          5
     1  C    0.000000
     2  H    1.073639   0.000000
     3  H    1.073639   1.832370   0.000000
     4  C    1.299606   2.072813   2.072813   0.000000
     5  C    2.599213   3.289128   3.289128   1.299606   0.000000
     6  H    3.289128   3.937948   3.937948   2.072813   1.073639
     7  H    3.289128   3.937948   3.937948   2.072813   1.073639
                    6          7
     6  H    0.000000
     7  H    1.832370   0.000000
 Stoichiometry    C3H4
 Framework group  D2D[O(C),C2(C.C),2SGD(H2)]
 Deg. of freedom     3
 Full point group                 D2D     NOp   8
 Largest Abelian subgroup         C2V     NOp   4
 Largest concise Abelian subgroup C2V     NOp   4
                         Standard orientation:                         
 ---------------------------------------------------------------------
 Center     Atomic      Atomic             Coordinates (Angstroms)
 Number     Number       Type             X           Y           Z
 ---------------------------------------------------------------------
      1          6           0        0.000000    0.000000    1.299606
      2          1           0        0.000000    0.916185    1.859344
      3          1           0        0.000000   -0.916185    1.859344
      4          6           0        0.000000    0.000000    0.000000
      5          6           0        0.000000    0.000000   -1.299606
      6          1           0        0.916185    0.000000   -1.859344
      7          1           0       -0.916185    0.000000   -1.859344
 ---------------------------------------------------------------------
 Rotational constants (GHZ):         149.3501243           8.9982375           8.9982375

 **********************************************************************

            Population analysis using the SCF Density.

 **********************************************************************

 Orbital symmetries:
       Occupied  (A1) (B2) (A1) (A1) (B2) (A1) (B2) (E) (E) (E)
                 (E)
       Virtual   (E) (E) (A1) (B2) (E) (E) (B2) (A1) (A1) (E) (E)
                 (E) (E) (A1) (B2) (E) (E) (B2) (A1) (E) (E) (B2)
                 (A1) (B2)
 The electronic state is 1-A1.
 Alpha  occ. eigenvalues --  -11.26683 -11.23497 -11.23488  -1.07775  -0.96199
 Alpha  occ. eigenvalues --   -0.71416  -0.62914  -0.60771  -0.60771  -0.37258
 Alpha  occ. eigenvalues --   -0.37258
 Alpha virt. eigenvalues --    0.17813   0.17813   0.27412   0.28790   0.36769
 Alpha virt. eigenvalues --    0.36769   0.48266   0.48637   0.63794   0.76526
 Alpha virt. eigenvalues --    0.76526   0.90275   0.90275   0.91278   0.93290
 Alpha virt. eigenvalues --    1.09410   1.09410   1.22584   1.24282   1.25218
 Alpha virt. eigenvalues --    1.25218   1.39505   1.46767   1.48060
          Condensed to atoms (all electrons):
               1          2          3          4          5          6
     1  C    5.081747   0.381142   0.381142   0.644149  -0.079507   0.000713
     2  H    0.381142   0.482385  -0.023931  -0.030336   0.000713  -0.000026
     3  H    0.381142  -0.023931   0.482385  -0.030336   0.000713  -0.000026
     4  C    0.644149  -0.030336  -0.030336   4.773169   0.644149  -0.030336
     5  C   -0.079507   0.000713   0.000713   0.644149   5.081747   0.381142
     6  H    0.000713  -0.000026  -0.000026  -0.030336   0.381142   0.482385
     7  H    0.000713  -0.000026  -0.000026  -0.030336   0.381142  -0.023931
               7
     1  C    0.000713
     2  H   -0.000026
     3  H   -0.000026
     4  C   -0.030336
     5  C    0.381142
     6  H   -0.023931
     7  H    0.482385
 Mulliken charges:
               1
     1  C   -0.410099
     2  H    0.190080
     3  H    0.190080
     4  C    0.059878
     5  C   -0.410099
     6  H    0.190080
     7  H    0.190080
 Sum of Mulliken charges =   0.00000
 Mulliken charges with hydrogens summed into heavy atoms:
               1
     1  C   -0.029939
     4  C    0.059878
     5  C   -0.029939
 Electronic spatial extent (au):  <R**2>=            174.2701
 Charge=              0.0000 electrons
 Dipole moment (field-independent basis, Debye):
    X=              0.0000    Y=              0.0000    Z=              0.0000  Tot=              0.0000
 Quadrupole moment (field-independent basis, Debye-Ang):
   XX=            -19.4348   YY=            -19.4348   ZZ=            -15.6307
   XY=              0.0000   XZ=              0.0000   YZ=              0.0000
 Traceless Quadrupole moment (field-independent basis, Debye-Ang):
   XX=             -1.2680   YY=             -1.2680   ZZ=              2.5360
   XY=              0.0000   XZ=              0.0000   YZ=              0.0000
 Octapole moment (field-independent basis, Debye-Ang**2):
  XXX=              0.0000  YYY=              0.0000  ZZZ=              0.0000  XYY=              0.0000
  XXY=              0.0000  XXZ=             -3.4480  XZZ=              0.0000  YZZ=              0.0000
  YYZ=              3.4480  XYZ=              0.0000
 Hexadecapole moment (field-independent basis, Debye-Ang**3):
 XXXX=            -26.8754 YYYY=            -26.8754 ZZZZ=           -170.7708 XXXY=              0.0000
 XXXZ=              0.0000 YYYX=              0.0000 YYYZ=              0.0000 ZZZX=              0.0000
 ZZZY=              0.0000 XXYY=             -9.6063 XXZZ=            -33.6213 YYZZ=            -33.6213
 XXYZ=              0.0000 YYXZ=              0.0000 ZZXY=              0.0000
 N-N= 5.957904840641D+01 E-N=-3.885639524714D+02  KE= 1.159234070902D+02
 Symmetry A1   KE= 1.078498338387D+02
 Symmetry A2   KE= 0.000000000000D+00
 Symmetry B1   KE= 4.036786625760D+00
 Symmetry B2   KE= 4.036786625760D+00
 1|1|UNPC-WIN10-2T0259|FOpt|RHF|6-31G|C3H4|SDDX|16-Apr-2026|0||# opt hf
 /6-31g geom=connectivity||Title Card Required||0,1|C,0.,0.,-1.29960642
 07|H,0.,0.9161851293,-1.859344031|H,0.,-0.9161851293,-1.859344031|C,0.
 ,0.,0.|C,0.,0.,1.2996064207|H,-0.9161851293,0.,1.859344031|H,0.9161851
 293,0.,1.859344031||Version=EM64W-G16RevB.01|State=1-A1|HF=-115.821516
 2|RMSD=3.251e-009|RMSF=2.719e-005|Dipole=0.,0.,0.|Quadrupole=-0.942741
 3,-0.9427413,1.8854826,0.,0.,0.|PG=D02D [O(C1),C2(C1.C1),2SGD(H2)]||@


 I am not a vegetarian because I love animals;
 I am a vegetarian because I hate plants.
                               -- A. Whitney Brown
 Job cpu time:       0 days  0 hours  0 minutes  5.0 seconds.
 Elapsed time:       0 days  0 hours  0 minutes  3.1 seconds.
 File lengths (MBytes):  RWF=      6 Int=      0 D2E=      0 Chk=      1 Scr=      1
 Normal termination of Gaussian 16 at Thu Apr 16 11:03:00 2026.
