 Entering Link 1 = C:\G16W\l1.exe PID=      5744.
  
 Copyright (c) 1988,1990,1992,1993,1995,1998,2003,2009,2016,
            Gaussian, Inc.  All Rights Reserved.
  
 This is part of the Gaussian(R) 16 program.  It is based on
 the Gaussian(R) 09 system (copyright 2009, Gaussian, Inc.),
 the Gaussian(R) 03 system (copyright 2003, Gaussian, Inc.),
 the Gaussian(R) 98 system (copyright 1998, Gaussian, Inc.),
 the Gaussian(R) 94 system (copyright 1995, Gaussian, Inc.),
 the Gaussian 92(TM) system (copyright 1992, Gaussian, Inc.),
 the Gaussian 90(TM) system (copyright 1990, Gaussian, Inc.),
 the Gaussian 88(TM) system (copyright 1988, Gaussian, Inc.),
 the Gaussian 86(TM) system (copyright 1986, Carnegie Mellon
 University), and the Gaussian 82(TM) system (copyright 1983,
 Carnegie Mellon University). Gaussian is a federally registered
 trademark of Gaussian, Inc.
  
 This software contains proprietary and confidential information,
 including trade secrets, belonging to Gaussian, Inc.
  
 This software is provided under written license and may be
 used, copied, transmitted, or stored only in accord with that
 written license.
  
 The following legend is applicable only to US Government
 contracts under FAR:
  
                    RESTRICTED RIGHTS LEGEND
  
 Use, reproduction and disclosure by the US Government is
 subject to restrictions as set forth in subparagraphs (a)
 and (c) of the Commercial Computer Software - Restricted
 Rights clause in FAR 52.227-19.
  
 Gaussian, Inc.
 340 Quinnipiac St., Bldg. 40, Wallingford CT 06492
  
  
 ---------------------------------------------------------------
 Warning -- This program may not be used in any manner that
 competes with the business of Gaussian, Inc. or will provide
 assistance to any competitor of Gaussian, Inc.  The licensee
 of this program is prohibited from giving any competitor of
 Gaussian, Inc. access to this program.  By using this program,
 the user acknowledges that Gaussian, Inc. is engaged in the
 business of creating and licensing software in the field of
 computational chemistry and represents and warrants to the
 licensee that it is not a competitor of Gaussian, Inc. and that
 it will not use this program in any manner prohibited above.
 ---------------------------------------------------------------
  

 Cite this work as:
 Gaussian 16, Revision A.03,
 M. J. Frisch, G. W. Trucks, H. B. Schlegel, G. E. Scuseria, 
 M. A. Robb, J. R. Cheeseman, G. Scalmani, V. Barone, 
 G. A. Petersson, H. Nakatsuji, X. Li, M. Caricato, A. V. Marenich, 
 J. Bloino, B. G. Janesko, R. Gomperts, B. Mennucci, H. P. Hratchian, 
 J. V. Ortiz, A. F. Izmaylov, J. L. Sonnenberg, D. Williams-Young, 
 F. Ding, F. Lipparini, F. Egidi, J. Goings, B. Peng, A. Petrone, 
 T. Henderson, D. Ranasinghe, V. G. Zakrzewski, J. Gao, N. Rega, 
 G. Zheng, W. Liang, M. Hada, M. Ehara, K. Toyota, R. Fukuda, 
 J. Hasegawa, M. Ishida, T. Nakajima, Y. Honda, O. Kitao, H. Nakai, 
 T. Vreven, K. Throssell, J. A. Montgomery, Jr., J. E. Peralta, 
 F. Ogliaro, M. J. Bearpark, J. J. Heyd, E. N. Brothers, K. N. Kudin, 
 V. N. Staroverov, T. A. Keith, R. Kobayashi, J. Normand, 
 K. Raghavachari, A. P. Rendell, J. C. Burant, S. S. Iyengar, 
 J. Tomasi, M. Cossi, J. M. Millam, M. Klene, C. Adamo, R. Cammi, 
 J. W. Ochterski, R. L. Martin, K. Morokuma, O. Farkas, 
 J. B. Foresman, and D. J. Fox, Gaussian, Inc., Wallingford CT, 2016.
 
 ******************************************
 Gaussian 16:  EM64W-G16RevA.03 17-Dec-2016
                20-Apr-2026 
 ******************************************
 %chk=C:\Users\25012\OneDrive\Graduation Project\visualising-quantum-chemistry\vi
 sualizing-molecular-groups\calculations\C4H8.chk
 -------------------------------------------
 # opt freq b3lyp/6-31g(d) geom=connectivity
 -------------------------------------------
 1/18=20,19=15,26=3,38=1,57=2/1,3;
 2/9=110,12=2,17=6,18=5,40=1/2;
 3/5=1,6=6,7=1,11=2,25=1,30=1,71=1,74=-5/1,2,3;
 4//1;
 5/5=2,38=5/2;
 6/7=2,8=2,9=2,10=2,28=1/1;
 7//1,2,3,16;
 1/18=20,19=15,26=3/3(2);
 2/9=110/2;
 99//99;
 2/9=110/2;
 3/5=1,6=6,7=1,11=2,25=1,30=1,71=1,74=-5/1,2,3;
 4/5=5,16=3,69=1/1;
 5/5=2,38=5/2;
 7//1,2,3,16;
 1/18=20,19=15,26=3/3(-5);
 2/9=110/2;
 6/7=2,8=2,9=2,10=2,19=2,28=1/1;
 99/9=1/99;
 -------------------
 Title Card Required
 -------------------
 Symbolic Z-matrix:
 Charge =  0 Multiplicity = 1
 C                    -0.60056   0.12221   0. 
 C                     0.94269   0.12221   0. 
 C                     0.94263   1.6654    0. 
 C                    -0.6006    1.66539  -0.00027 
 H                    -1.05355  -0.33091  -0.90642 
 H                    -1.05322  -0.33076   0.90664 
 H                     1.3956   -0.33061  -0.90662 
 H                     1.39557  -0.33085   0.90653 
 H                     1.39555   2.11815  -0.90666 
 H                     1.39535   2.11853   0.9065 
 H                    -1.0533    2.11792  -0.90724 
 H                    -1.05387   2.11866   0.90596 
 

 GradGradGradGradGradGradGradGradGradGradGradGradGradGradGradGradGradGrad
 Berny optimization.
 Initialization pass.
                           ----------------------------
                           !    Initial Parameters    !
                           ! (Angstroms and Degrees)  !
 --------------------------                            --------------------------
 ! Name  Definition              Value          Derivative Info.                !
 --------------------------------------------------------------------------------
 ! R1    R(1,2)                  1.5432         estimate D2E/DX2                !
 ! R2    R(1,4)                  1.5432         estimate D2E/DX2                !
 ! R3    R(1,5)                  1.11           estimate D2E/DX2                !
 ! R4    R(1,6)                  1.11           estimate D2E/DX2                !
 ! R5    R(2,3)                  1.5432         estimate D2E/DX2                !
 ! R6    R(2,7)                  1.11           estimate D2E/DX2                !
 ! R7    R(2,8)                  1.11           estimate D2E/DX2                !
 ! R8    R(3,4)                  1.5432         estimate D2E/DX2                !
 ! R9    R(3,9)                  1.11           estimate D2E/DX2                !
 ! R10   R(3,10)                 1.11           estimate D2E/DX2                !
 ! R11   R(4,11)                 1.1101         estimate D2E/DX2                !
 ! R12   R(4,12)                 1.11           estimate D2E/DX2                !
 ! A1    A(2,1,4)               90.0016         estimate D2E/DX2                !
 ! A2    A(2,1,5)              114.0856         estimate D2E/DX2                !
 ! A3    A(2,1,6)              114.0671         estimate D2E/DX2                !
 ! A4    A(4,1,5)              114.0826         estimate D2E/DX2                !
 ! A5    A(4,1,6)              114.0925         estimate D2E/DX2                !
 ! A6    A(5,1,6)              109.5109         estimate D2E/DX2                !
 ! A7    A(1,2,3)               89.9977         estimate D2E/DX2                !
 ! A8    A(1,2,7)              114.0807         estimate D2E/DX2                !
 ! A9    A(1,2,8)              114.0787         estimate D2E/DX2                !
 ! A10   A(3,2,7)              114.0763         estimate D2E/DX2                !
 ! A11   A(3,2,8)              114.0896         estimate D2E/DX2                !
 ! A12   A(7,2,8)              109.5156         estimate D2E/DX2                !
 ! A13   A(2,3,4)               90.0022         estimate D2E/DX2                !
 ! A14   A(2,3,9)              114.0706         estimate D2E/DX2                !
 ! A15   A(2,3,10)             114.093          estimate D2E/DX2                !
 ! A16   A(4,3,9)              114.0724         estimate D2E/DX2                !
 ! A17   A(4,3,10)             114.0802         estimate D2E/DX2                !
 ! A18   A(9,3,10)             109.5196         estimate D2E/DX2                !
 ! A19   A(1,4,3)               89.9985         estimate D2E/DX2                !
 ! A20   A(1,4,11)             114.067          estimate D2E/DX2                !
 ! A21   A(1,4,12)             114.0921         estimate D2E/DX2                !
 ! A22   A(3,4,11)             114.0758         estimate D2E/DX2                !
 ! A23   A(3,4,12)             114.0918         estimate D2E/DX2                !
 ! A24   A(11,4,12)            109.5139         estimate D2E/DX2                !
 ! D1    D(4,1,2,3)              0.01           estimate D2E/DX2                !
 ! D2    D(4,1,2,7)           -116.53           estimate D2E/DX2                !
 ! D3    D(4,1,2,8)            116.5645         estimate D2E/DX2                !
 ! D4    D(5,1,2,3)            116.5601         estimate D2E/DX2                !
 ! D5    D(5,1,2,7)              0.0201         estimate D2E/DX2                !
 ! D6    D(5,1,2,8)           -126.8854         estimate D2E/DX2                !
 ! D7    D(6,1,2,3)           -116.547          estimate D2E/DX2                !
 ! D8    D(6,1,2,7)            126.9129         estimate D2E/DX2                !
 ! D9    D(6,1,2,8)              0.0074         estimate D2E/DX2                !
 ! D10   D(2,1,4,3)             -0.01           estimate D2E/DX2                !
 ! D11   D(2,1,4,11)           116.5268         estimate D2E/DX2                !
 ! D12   D(2,1,4,12)          -116.5703         estimate D2E/DX2                !
 ! D13   D(5,1,4,3)           -116.5628         estimate D2E/DX2                !
 ! D14   D(5,1,4,11)            -0.026          estimate D2E/DX2                !
 ! D15   D(5,1,4,12)           126.877          estimate D2E/DX2                !
 ! D16   D(6,1,4,3)            116.5243         estimate D2E/DX2                !
 ! D17   D(6,1,4,11)          -126.9389         estimate D2E/DX2                !
 ! D18   D(6,1,4,12)            -0.036          estimate D2E/DX2                !
 ! D19   D(1,2,3,4)             -0.01           estimate D2E/DX2                !
 ! D20   D(1,2,3,9)           -116.5456         estimate D2E/DX2                !
 ! D21   D(1,2,3,10)           116.5393         estimate D2E/DX2                !
 ! D22   D(7,2,3,4)            116.5339         estimate D2E/DX2                !
 ! D23   D(7,2,3,9)             -0.0017         estimate D2E/DX2                !
 ! D24   D(7,2,3,10)          -126.9168         estimate D2E/DX2                !
 ! D25   D(8,2,3,4)           -116.5547         estimate D2E/DX2                !
 ! D26   D(8,2,3,9)            126.9097         estimate D2E/DX2                !
 ! D27   D(8,2,3,10)            -0.0054         estimate D2E/DX2                !
 ! D28   D(2,3,4,1)              0.01           estimate D2E/DX2                !
 ! D29   D(2,3,4,11)          -116.5189         estimate D2E/DX2                !
 ! D30   D(2,3,4,12)           116.5706         estimate D2E/DX2                !
 ! D31   D(9,3,4,1)            116.544          estimate D2E/DX2                !
 ! D32   D(9,3,4,11)             0.0151         estimate D2E/DX2                !
 ! D33   D(9,3,4,12)          -126.8954         estimate D2E/DX2                !
 ! D34   D(10,3,4,1)          -116.5508         estimate D2E/DX2                !
 ! D35   D(10,3,4,11)          126.9203         estimate D2E/DX2                !
 ! D36   D(10,3,4,12)            0.0098         estimate D2E/DX2                !
 --------------------------------------------------------------------------------
 Trust Radius=3.00D-01 FncErr=1.00D-07 GrdErr=1.00D-06 EigMax=2.50D+02 EigMin=1.00D-04
 Number of steps in this run=     82 maximum allowed number of steps=    100.
 GradGradGradGradGradGradGradGradGradGradGradGradGradGradGradGradGradGrad

                          Input orientation:                          
 ---------------------------------------------------------------------
 Center     Atomic      Atomic             Coordinates (Angstroms)
 Number     Number       Type             X           Y           Z
 ---------------------------------------------------------------------
      1          6           0       -0.600559    0.122207    0.000000
      2          6           0        0.942688    0.122207    0.000000
      3          6           0        0.942627    1.665397    0.000000
      4          6           0       -0.600602    1.665394   -0.000270
      5          1           0       -1.053553   -0.330906   -0.906420
      6          1           0       -1.053220   -0.330758    0.906643
      7          1           0        1.395596   -0.330606   -0.906615
      8          1           0        1.395568   -0.330848    0.906530
      9          1           0        1.395553    2.118151   -0.906656
     10          1           0        1.395352    2.118527    0.906504
     11          1           0       -1.053301    2.117923   -0.907235
     12          1           0       -1.053872    2.118657    0.905959
 ---------------------------------------------------------------------
                    Distance matrix (angstroms):
                    1          2          3          4          5
     1  C    0.000000
     2  C    1.543247   0.000000
     3  C    2.182397   1.543190   0.000000
     4  C    1.543187   2.182469   1.543229   0.000000
     5  H    1.110005   2.238724   2.965056   2.238635   0.000000
     6  H    1.109991   2.238488   2.964800   2.238745   1.813063
     7  H    2.238666   1.110007   2.238562   2.964841   2.449149
     8  H    2.238656   1.110025   2.238738   2.965124   3.047127
     9  H    2.964841   2.238505   1.110024   2.238562   3.463524
    10  H    2.964912   2.238738   1.109971   2.238616   3.909418
    11  H    2.238511   2.964782   2.238657   1.110092   2.448829
    12  H    2.238765   2.965270   2.238798   1.110023   3.047142
                    6          7          8          9         10
     6  H    0.000000
     7  H    3.047065   0.000000
     8  H    2.448788   1.813145   0.000000
     9  H    3.909181   2.448757   3.047169   0.000000
    10  H    3.463308   3.047237   2.449375   1.813160   0.000000
    11  H    3.047325   3.463003   3.909371   2.448854   3.047220
    12  H    2.449415   3.909502   3.464077   3.047172   2.449224
                   11         12
    11  H    0.000000
    12  H    1.813194   0.000000
 Stoichiometry    C4H8
 Framework group  C1[X(C4H8)]
 Deg. of freedom    30
 Full point group                 C1      NOp   1
 Largest Abelian subgroup         C1      NOp   1
 Largest concise Abelian subgroup C1      NOp   1
                         Standard orientation:                         
 ---------------------------------------------------------------------
 Center     Atomic      Atomic             Coordinates (Angstroms)
 Number     Number       Type             X           Y           Z
 ---------------------------------------------------------------------
      1          6           0       -0.009844    1.091147   -0.000091
      2          6           0        1.091192    0.009791   -0.000091
      3          6           0        0.009833   -1.091162   -0.000091
      4          6           0       -1.091188   -0.009817    0.000179
      5          1           0       -0.015538    1.731836    0.906329
      6          1           0       -0.015404    1.731497   -0.906734
      7          1           0        1.731608    0.015500    0.906524
      8          1           0        1.731758    0.015692   -0.906621
      9          1           0        0.015730   -1.731547    0.906565
     10          1           0        0.015323   -1.731675   -0.906595
     11          1           0       -1.731256   -0.015469    0.907144
     12          1           0       -1.732178   -0.015592   -0.906050
 ---------------------------------------------------------------------
 Rotational constants (GHZ):          10.6862191          10.6855649           6.2135286
 Standard basis: 6-31G(d) (6D, 7F)
 There are    76 symmetry adapted cartesian basis functions of A   symmetry.
 There are    76 symmetry adapted basis functions of A   symmetry.
    76 basis functions,   144 primitive gaussians,    76 cartesian basis functions
    16 alpha electrons       16 beta electrons
       nuclear repulsion energy       126.4169295269 Hartrees.
 NAtoms=   12 NActive=   12 NUniq=   12 SFac= 1.00D+00 NAtFMM=   60 NAOKFM=F Big=F
 Integral buffers will be    131072 words long.
 Raffenetti 2 integral format.
 Two-electron integral symmetry is turned on.
 One-electron integrals computed using PRISM.
 NBasis=    76 RedAO= T EigKep=  2.39D-03  NBF=    76
 NBsUse=    76 1.00D-06 EigRej= -1.00D+00 NBFU=    76
 ExpMin= 1.61D-01 ExpMax= 3.05D+03 ExpMxC= 4.57D+02 IAcc=3 IRadAn=         5 AccDes= 0.00D+00
 Harris functional with IExCor=  402 and IRadAn=       5 diagonalized for initial guess.
 HarFok:  IExCor=  402 AccDes= 0.00D+00 IRadAn=         5 IDoV= 1 UseB2=F ITyADJ=14
 ICtDFT=  3500011 ScaDFX=  1.000000  1.000000  1.000000  1.000000
 FoFCou: FMM=F IPFlag=           0 FMFlag=      100000 FMFlg1=           0
         NFxFlg=           0 DoJE=T BraDBF=F KetDBF=T FulRan=T
         wScrn=  0.000000 ICntrl=       500 IOpCl=  0 I1Cent=   200000004 NGrid=           0
         NMat0=    1 NMatS0=      1 NMatT0=    0 NMatD0=    1 NMtDS0=    0 NMtDT0=    0
 Petite list used in FoFCou.
 Keep R1 ints in memory in canonical form, NReq=5183682.
 Requested convergence on RMS density matrix=1.00D-08 within 128 cycles.
 Requested convergence on MAX density matrix=1.00D-06.
 Requested convergence on             energy=1.00D-06.
 No special actions if energy rises.
 Integral accuracy reduced to 1.0D-05 until final iterations.
 Initial convergence to 1.0D-05 achieved.  Increase integral accuracy.
 SCF Done:  E(RB3LYP) =  -157.209851048     A.U. after    9 cycles
            NFock=  9  Conv=0.52D-08     -V/T= 2.0106

 **********************************************************************

            Population analysis using the SCF density.

 **********************************************************************

 Orbital symmetries:
       Occupied  (A) (A) (A) (A) (A) (A) (A) (A) (A) (A) (A) (A)
                 (A) (A) (A) (A)
       Virtual   (A) (A) (A) (A) (A) (A) (A) (A) (A) (A) (A) (A)
                 (A) (A) (A) (A) (A) (A) (A) (A) (A) (A) (A) (A)
                 (A) (A) (A) (A) (A) (A) (A) (A) (A) (A) (A) (A)
                 (A) (A) (A) (A) (A) (A) (A) (A) (A) (A) (A) (A)
                 (A) (A) (A) (A) (A) (A) (A) (A) (A) (A) (A) (A)
 The electronic state is 1-A.
 Alpha  occ. eigenvalues --  -10.17560 -10.17541 -10.17540 -10.17521  -0.82995
 Alpha  occ. eigenvalues --   -0.64810  -0.64810  -0.52374  -0.47803  -0.46332
 Alpha  occ. eigenvalues --   -0.38021  -0.38020  -0.35075  -0.30292  -0.29309
 Alpha  occ. eigenvalues --   -0.29305
 Alpha virt. eigenvalues --    0.08737   0.08863   0.13542   0.13542   0.18459
 Alpha virt. eigenvalues --    0.18461   0.19364   0.19501   0.19502   0.26935
 Alpha virt. eigenvalues --    0.27117   0.37972   0.50780   0.52202   0.54932
 Alpha virt. eigenvalues --    0.57414   0.57415   0.64184   0.64186   0.70719
 Alpha virt. eigenvalues --    0.73763   0.73769   0.76712   0.76976   0.84048
 Alpha virt. eigenvalues --    0.86171   0.86173   0.86957   0.92412   0.92416
 Alpha virt. eigenvalues --    0.95340   0.98785   1.27797   1.30330   1.30333
 Alpha virt. eigenvalues --    1.35236   1.65287   1.72569   1.91936   1.91940
 Alpha virt. eigenvalues --    1.94910   1.97667   1.97697   1.97702   2.02370
 Alpha virt. eigenvalues --    2.06088   2.06094   2.16313   2.26668   2.26680
 Alpha virt. eigenvalues --    2.39203   2.52409   2.52411   2.65399   2.69429
 Alpha virt. eigenvalues --    2.86331   4.08877   4.32771   4.32773   4.71679
          Condensed to atoms (all electrons):
               1          2          3          4          5          6
     1  C    5.053864   0.370810  -0.159966   0.370794   0.368419   0.368423
     2  C    0.370810   5.053851   0.370800  -0.159943  -0.030613  -0.030635
     3  C   -0.159966   0.370800   5.053833   0.370815   0.008577   0.008575
     4  C    0.370794  -0.159943   0.370815   5.053849  -0.030618  -0.030611
     5  H    0.368419  -0.030613   0.008577  -0.030618   0.593952  -0.032221
     6  H    0.368423  -0.030635   0.008575  -0.030611  -0.032221   0.593950
     7  H   -0.030620   0.368422  -0.030621   0.008573  -0.008668   0.003544
     8  H   -0.030621   0.368426  -0.030615   0.008576   0.003542  -0.008672
     9  H    0.008577  -0.030627   0.368421  -0.030622  -0.000330  -0.000416
    10  H    0.008576  -0.030612   0.368422  -0.030627  -0.000416  -0.000329
    11  H   -0.030629   0.008572  -0.030620   0.368415  -0.008673   0.003543
    12  H   -0.030613   0.008578  -0.030615   0.368419   0.003541  -0.008665
               7          8          9         10         11         12
     1  C   -0.030620  -0.030621   0.008577   0.008576  -0.030629  -0.030613
     2  C    0.368422   0.368426  -0.030627  -0.030612   0.008572   0.008578
     3  C   -0.030621  -0.030615   0.368421   0.368422  -0.030620  -0.030615
     4  C    0.008573   0.008576  -0.030622  -0.030627   0.368415   0.368419
     5  H   -0.008668   0.003542  -0.000330  -0.000416  -0.008673   0.003541
     6  H    0.003544  -0.008672  -0.000416  -0.000329   0.003543  -0.008665
     7  H    0.593956  -0.032217  -0.008674   0.003542  -0.000329  -0.000416
     8  H   -0.032217   0.593943   0.003542  -0.008665  -0.000416  -0.000330
     9  H   -0.008674   0.003542   0.593963  -0.032209  -0.008674   0.003541
    10  H    0.003542  -0.008665  -0.032209   0.593913   0.003543  -0.008664
    11  H   -0.000329  -0.000416  -0.008674   0.003543   0.593992  -0.032215
    12  H   -0.000416  -0.000330   0.003541  -0.008664  -0.032215   0.593929
 Mulliken charges:
               1
     1  C   -0.267015
     2  C   -0.267027
     3  C   -0.267006
     4  C   -0.267020
     5  H    0.133508
     6  H    0.133513
     7  H    0.133508
     8  H    0.133507
     9  H    0.133508
    10  H    0.133523
    11  H    0.133491
    12  H    0.133509
 Sum of Mulliken charges =   0.00000
 Mulliken charges with hydrogens summed into heavy atoms:
               1
     1  C    0.000006
     2  C   -0.000012
     3  C    0.000026
     4  C   -0.000020
 Electronic spatial extent (au):  <R**2>=            270.5257
 Charge=              0.0000 electrons
 Dipole moment (field-independent basis, Debye):
    X=              0.0001    Y=              0.0000    Z=              0.0000  Tot=              0.0001
 Quadrupole moment (field-independent basis, Debye-Ang):
   XX=            -27.2367   YY=            -27.2367   ZZ=            -25.3102
   XY=              0.0003   XZ=              0.0003   YZ=              0.0002
 Traceless Quadrupole moment (field-independent basis, Debye-Ang):
   XX=             -0.6422   YY=             -0.6421   ZZ=              1.2843
   XY=              0.0003   XZ=              0.0003   YZ=              0.0002
 Octapole moment (field-independent basis, Debye-Ang**2):
  XXX=              0.0003  YYY=              0.0006  ZZZ=              0.0005  XYY=              0.0004
  XXY=              0.0004  XXZ=             -0.0015  XZZ=              0.0002  YZZ=             -0.0003
  YYZ=             -0.0004  XYZ=             -0.0011
 Hexadecapole moment (field-independent basis, Debye-Ang**3):
 XXXX=           -159.6249 YYYY=           -159.6140 ZZZZ=            -54.7247 XXXY=              0.0390
 XXXZ=              0.0108 YYYX=             -0.0372 YYYZ=              0.0036 ZZZX=              0.0063
 ZZZY=              0.0005 XXYY=            -54.6452 XXZZ=            -32.9260 YYZZ=            -32.9245
 XXYZ=              0.0002 YYXZ=              0.0027 ZZXY=              0.0005
 N-N= 1.264169295269D+02 E-N=-6.158661286580D+02  KE= 1.555569947424D+02
 Calling FoFJK, ICntrl=      2127 FMM=F ISym2X=0 I1Cent= 0 IOpClX= 0 NMat=1 NMatS=1 NMatT=0.
 ***** Axes restored to original set *****
 -------------------------------------------------------------------
 Center     Atomic                   Forces (Hartrees/Bohr)
 Number     Number              X              Y              Z
 -------------------------------------------------------------------
      1        6          -0.011968703   -0.012035569    0.000007796
      2        6           0.011977039   -0.012005612    0.000005071
      3        6           0.011974825    0.012015520   -0.000040806
      4        6          -0.012021863    0.012009334   -0.000052078
      5        1           0.001946929    0.001945578    0.009845434
      6        1           0.001921680    0.001959141   -0.009837916
      7        1          -0.001941979    0.001940272    0.009851999
      8        1          -0.001942592    0.001955285   -0.009857902
      9        1          -0.001937873   -0.001931963    0.009868150
     10        1          -0.001925917   -0.001948403   -0.009832949
     11        1           0.001961452   -0.001947135    0.009895404
     12        1           0.001957002   -0.001956448   -0.009852203
 -------------------------------------------------------------------
 Cartesian Forces:  Max     0.012035569 RMS     0.007434436

 GradGradGradGradGradGradGradGradGradGradGradGradGradGradGradGradGradGrad
 Berny optimization.
 FormGI is forming the generalized inverse of G from B-inverse, IUseBI=4.
 Internal  Forces:  Max     0.009678355 RMS     0.003845163
 Search for a local minimum.
 Step number   1 out of a maximum of   82
 All quantities printed in internal units (Hartrees-Bohrs-Radians)
 Mixed Optimization -- RFO/linear search
 Second derivative matrix not updated -- first step.
 ITU=  0
     Eigenvalues ---    0.00230   0.02271   0.02271   0.03383   0.04867
     Eigenvalues ---    0.04867   0.04867   0.04867   0.05430   0.05865
     Eigenvalues ---    0.05865   0.06235   0.06235   0.06434   0.07849
     Eigenvalues ---    0.07849   0.08990   0.21332   0.26343   0.26346
     Eigenvalues ---    0.28234   0.28238   0.32590   0.32597   0.32597
     Eigenvalues ---    0.32598   0.32599   0.32599   0.32601   0.32603
 RFO step:  Lambda=-4.02609662D-03 EMin= 2.30000023D-03
 Linear search not attempted -- first point.
 Iteration  1 RMS(Cart)=  0.01740908 RMS(Int)=  0.00019704
 Iteration  2 RMS(Cart)=  0.00013401 RMS(Int)=  0.00003502
 Iteration  3 RMS(Cart)=  0.00000002 RMS(Int)=  0.00003502
 Variable       Old X    -DE/DX   Delta X   Delta X   Delta X     New X
                                 (Linear)    (Quad)   (Total)
    R1        2.91631   0.00810   0.00000   0.02829   0.02829   2.94460
    R2        2.91620   0.00812   0.00000   0.02835   0.02835   2.94455
    R3        2.09761  -0.00963   0.00000  -0.02918  -0.02918   2.06843
    R4        2.09758  -0.00962   0.00000  -0.02914  -0.02914   2.06843
    R5        2.91621   0.00812   0.00000   0.02836   0.02836   2.94456
    R6        2.09761  -0.00963   0.00000  -0.02918  -0.02918   2.06843
    R7        2.09764  -0.00964   0.00000  -0.02922  -0.02922   2.06843
    R8        2.91628   0.00810   0.00000   0.02830   0.02830   2.94458
    R9        2.09764  -0.00964   0.00000  -0.02921  -0.02921   2.06843
   R10        2.09754  -0.00961   0.00000  -0.02912  -0.02912   2.06842
   R11        2.09777  -0.00968   0.00000  -0.02933  -0.02933   2.06844
   R12        2.09764  -0.00964   0.00000  -0.02922  -0.02922   2.06842
    A1        1.57082  -0.00001   0.00000  -0.00004  -0.00004   1.57079
    A2        1.99117   0.00064   0.00000   0.00937   0.00932   2.00049
    A3        1.99085   0.00065   0.00000   0.00956   0.00951   2.00035
    A4        1.99112   0.00065   0.00000   0.00938   0.00933   2.00045
    A5        1.99129   0.00063   0.00000   0.00918   0.00913   2.00042
    A6        1.91132  -0.00203   0.00000  -0.02960  -0.02954   1.88179
    A7        1.57076   0.00001   0.00000   0.00004   0.00004   1.57080
    A8        1.99108   0.00064   0.00000   0.00940   0.00935   2.00043
    A9        1.99105   0.00064   0.00000   0.00940   0.00935   2.00040
   A10        1.99101   0.00064   0.00000   0.00941   0.00936   2.00036
   A11        1.99124   0.00063   0.00000   0.00928   0.00923   2.00047
   A12        1.91141  -0.00203   0.00000  -0.02966  -0.02960   1.88181
   A13        1.57083  -0.00001   0.00000  -0.00004  -0.00004   1.57079
   A14        1.99091   0.00065   0.00000   0.00952   0.00947   2.00037
   A15        1.99130   0.00063   0.00000   0.00921   0.00916   2.00046
   A16        1.99094   0.00065   0.00000   0.00947   0.00942   2.00036
   A17        1.99107   0.00065   0.00000   0.00942   0.00938   2.00045
   A18        1.91148  -0.00203   0.00000  -0.02971  -0.02965   1.88183
   A19        1.57077   0.00001   0.00000   0.00004   0.00004   1.57081
   A20        1.99084   0.00065   0.00000   0.00953   0.00948   2.00033
   A21        1.99128   0.00063   0.00000   0.00928   0.00923   2.00052
   A22        1.99100   0.00064   0.00000   0.00938   0.00933   2.00032
   A23        1.99128   0.00064   0.00000   0.00929   0.00924   2.00051
   A24        1.91138  -0.00203   0.00000  -0.02966  -0.02959   1.88179
    D1        0.00017   0.00000   0.00000   0.00006   0.00006   0.00023
    D2       -2.03383  -0.00087   0.00000  -0.01258  -0.01260  -2.04644
    D3        2.03443   0.00085   0.00000   0.01255   0.01258   2.04701
    D4        2.03436   0.00086   0.00000   0.01262   0.01265   2.04700
    D5        0.00035   0.00000   0.00000  -0.00002  -0.00002   0.00033
    D6       -2.21457   0.00172   0.00000   0.02512   0.02517  -2.18940
    D7       -2.03413  -0.00085   0.00000  -0.01232  -0.01234  -2.04647
    D8        2.21505  -0.00171   0.00000  -0.02495  -0.02500   2.19005
    D9        0.00013   0.00001   0.00000   0.00018   0.00018   0.00031
   D10       -0.00017   0.00000   0.00000  -0.00006  -0.00006  -0.00023
   D11        2.03378   0.00086   0.00000   0.01257   0.01260   2.04637
   D12       -2.03454  -0.00086   0.00000  -0.01254  -0.01256  -2.04710
   D13       -2.03440  -0.00086   0.00000  -0.01261  -0.01263  -2.04704
   D14       -0.00045   0.00000   0.00000   0.00002   0.00002  -0.00043
   D15        2.21442  -0.00172   0.00000  -0.02508  -0.02513   2.18929
   D16        2.03373   0.00087   0.00000   0.01266   0.01268   2.04641
   D17       -2.21550   0.00173   0.00000   0.02529   0.02534  -2.19017
   D18       -0.00063   0.00001   0.00000   0.00018   0.00018  -0.00045
   D19       -0.00017   0.00000   0.00000  -0.00006  -0.00006  -0.00023
   D20       -2.03410  -0.00086   0.00000  -0.01275  -0.01277  -2.04688
   D21        2.03399   0.00086   0.00000   0.01252   0.01254   2.04653
   D22        2.03390   0.00086   0.00000   0.01257   0.01260   2.04650
   D23       -0.00003   0.00000   0.00000  -0.00012  -0.00012  -0.00015
   D24       -2.21512   0.00172   0.00000   0.02514   0.02519  -2.18992
   D25       -2.03426  -0.00086   0.00000  -0.01266  -0.01269  -2.04695
   D26        2.21499  -0.00173   0.00000  -0.02535  -0.02540   2.18959
   D27       -0.00009   0.00000   0.00000  -0.00009  -0.00009  -0.00018
   D28        0.00017   0.00000   0.00000   0.00006   0.00006   0.00023
   D29       -2.03364  -0.00087   0.00000  -0.01271  -0.01274  -2.04637
   D30        2.03454   0.00085   0.00000   0.01253   0.01256   2.04710
   D31        2.03408   0.00087   0.00000   0.01279   0.01281   2.04689
   D32        0.00026   0.00000   0.00000   0.00002   0.00002   0.00028
   D33       -2.21474   0.00172   0.00000   0.02526   0.02531  -2.18943
   D34       -2.03420  -0.00085   0.00000  -0.01233  -0.01235  -2.04655
   D35        2.21518  -0.00172   0.00000  -0.02509  -0.02514   2.19003
   D36        0.00017   0.00000   0.00000   0.00015   0.00015   0.00032
         Item               Value     Threshold  Converged?
 Maximum Force            0.009678     0.000450     NO 
 RMS     Force            0.003845     0.000300     NO 
 Maximum Displacement     0.041827     0.001800     NO 
 RMS     Displacement     0.017402     0.001200     NO 
 Predicted change in Energy=-2.060857D-03
 GradGradGradGradGradGradGradGradGradGradGradGradGradGradGradGradGradGrad

                          Input orientation:                          
 ---------------------------------------------------------------------
 Center     Atomic      Atomic             Coordinates (Angstroms)
 Number     Number       Type             X           Y           Z
 ---------------------------------------------------------------------
      1          6           0       -0.608051    0.114649    0.000010
      2          6           0        0.950165    0.114718   -0.000047
      3          6           0        0.950099    1.672913   -0.000048
      4          6           0       -0.608103    1.672838   -0.000352
      5          1           0       -1.064048   -0.341522   -0.884326
      6          1           0       -1.063852   -0.341078    0.884680
      7          1           0        1.406081   -0.341126   -0.884591
      8          1           0        1.406115   -0.341231    0.884425
      9          1           0        1.406111    2.128805   -0.884522
     10          1           0        1.405850    2.128892    0.884507
     11          1           0       -1.063777    2.128443   -0.885150
     12          1           0       -1.064309    2.129041    0.883855
 ---------------------------------------------------------------------
                    Distance matrix (angstroms):
                    1          2          3          4          5
     1  C    0.000000
     2  C    1.558216   0.000000
     3  C    2.203638   1.558195   0.000000
     4  C    1.558189   2.203619   1.558202   0.000000
     5  H    1.094567   2.246588   2.982731   2.246539   0.000000
     6  H    1.094569   2.246498   2.982432   2.246518   1.769006
     7  H    2.246549   1.094565   2.246484   2.982427   2.470130
     8  H    2.246526   1.094565   2.246557   2.982680   3.038122
     9  H    2.982629   2.246493   1.094567   2.246491   3.493451
    10  H    2.982501   2.246549   1.094561   2.246546   3.915625
    11  H    2.246455   2.982357   2.246466   1.094569   2.469965
    12  H    2.246582   2.982764   2.246592   1.094563   3.038115
                    6          7          8          9         10
     6  H    0.000000
     7  H    3.038238   0.000000
     8  H    2.469966   1.769017   0.000000
     9  H    3.915497   2.469931   3.038133   0.000000
    10  H    3.492876   3.038207   2.470123   1.769029   0.000000
    11  H    3.038228   3.492702   3.915488   2.469887   3.038214
    12  H    2.470119   3.915604   3.493599   3.038113   2.470159
                   11         12
    11  H    0.000000
    12  H    1.769005   0.000000
 Stoichiometry    C4H8
 Framework group  C1[X(C4H8)]
 Deg. of freedom    30
 Full point group                 C1      NOp   1
 Largest Abelian subgroup         C1      NOp   1
 Largest concise Abelian subgroup C1      NOp   1
                         Standard orientation:                         
 ---------------------------------------------------------------------
 Center     Atomic      Atomic             Coordinates (Angstroms)
 Number     Number       Type             X           Y           Z
 ---------------------------------------------------------------------
      1          6           0       -1.021682    0.412517   -0.000128
      2          6           0        0.412531    1.021671   -0.000070
      3          6           0        1.021680   -0.412522   -0.000069
      4          6           0       -0.412523   -1.021665    0.000235
      5          1           0       -1.619733    0.654096    0.884209
      6          1           0       -1.619379    0.653764   -0.884797
      7          1           0        0.653936    1.619482    0.884474
      8          1           0        0.653926    1.619591   -0.884543
      9          1           0        1.619635   -0.653839    0.884405
     10          1           0        1.619430   -0.654021   -0.884624
     11          1           0       -0.653798   -1.619160    0.885033
     12          1           0       -0.654054   -1.619919   -0.883972
 ---------------------------------------------------------------------
 Rotational constants (GHZ):          10.5858812          10.5856838           6.0986763
 Standard basis: 6-31G(d) (6D, 7F)
 There are    76 symmetry adapted cartesian basis functions of A   symmetry.
 There are    76 symmetry adapted basis functions of A   symmetry.
    76 basis functions,   144 primitive gaussians,    76 cartesian basis functions
    16 alpha electrons       16 beta electrons
       nuclear repulsion energy       125.9794340034 Hartrees.
 NAtoms=   12 NActive=   12 NUniq=   12 SFac= 1.00D+00 NAtFMM=   60 NAOKFM=F Big=F
 Integral buffers will be    131072 words long.
 Raffenetti 2 integral format.
 Two-electron integral symmetry is turned on.
 One-electron integrals computed using PRISM.
 NBasis=    76 RedAO= T EigKep=  2.61D-03  NBF=    76
 NBsUse=    76 1.00D-06 EigRej= -1.00D+00 NBFU=    76
 Initial guess from the checkpoint file:  "C:\Users\25012\OneDrive\Graduation Project\visualising-quantum-chemistry\visualizing-molecular-groups\calculations\C4H8.chk"
 B after Tr=     0.000000    0.000000    0.000000
         Rot=    0.831481    0.000006    0.000001   -0.555553 Ang=  67.50 deg.
 ExpMin= 1.61D-01 ExpMax= 3.05D+03 ExpMxC= 4.57D+02 IAcc=2 IRadAn=         4 AccDes= 0.00D+00
 Harris functional with IExCor=  402 and IRadAn=       4 diagonalized for initial guess.
 HarFok:  IExCor=  402 AccDes= 0.00D+00 IRadAn=         4 IDoV= 1 UseB2=F ITyADJ=14
 ICtDFT=  3500011 ScaDFX=  1.000000  1.000000  1.000000  1.000000
 FoFCou: FMM=F IPFlag=           0 FMFlag=      100000 FMFlg1=           0
         NFxFlg=           0 DoJE=T BraDBF=F KetDBF=T FulRan=T
         wScrn=  0.000000 ICntrl=       500 IOpCl=  0 I1Cent=   200000004 NGrid=           0
         NMat0=    1 NMatS0=      1 NMatT0=    0 NMatD0=    1 NMtDS0=    0 NMtDT0=    0
 Petite list used in FoFCou.
 Keep R1 ints in memory in canonical form, NReq=5183682.
 Requested convergence on RMS density matrix=1.00D-08 within 128 cycles.
 Requested convergence on MAX density matrix=1.00D-06.
 Requested convergence on             energy=1.00D-06.
 No special actions if energy rises.
 Integral accuracy reduced to 1.0D-05 until final iterations.
 Initial convergence to 1.0D-05 achieved.  Increase integral accuracy.
 SCF Done:  E(RB3LYP) =  -157.211834188     A.U. after   10 cycles
            NFock= 10  Conv=0.16D-08     -V/T= 2.0103
 Calling FoFJK, ICntrl=      2127 FMM=F ISym2X=0 I1Cent= 0 IOpClX= 0 NMat=1 NMatS=1 NMatT=0.
 ***** Axes restored to original set *****
 -------------------------------------------------------------------
 Center     Atomic                   Forces (Hartrees/Bohr)
 Number     Number              X              Y              Z
 -------------------------------------------------------------------
      1        6           0.000587172    0.000576439    0.000000583
      2        6          -0.000588788    0.000576458    0.000006108
      3        6          -0.000586225   -0.000582684   -0.000012819
      4        6           0.000580218   -0.000573614   -0.000006673
      5        1          -0.000024903   -0.000026950   -0.000081671
      6        1          -0.000026147   -0.000023002    0.000081457
      7        1           0.000024095   -0.000028656   -0.000082040
      8        1           0.000030240   -0.000026012    0.000081108
      9        1           0.000030902    0.000030438   -0.000076461
     10        1           0.000026284    0.000024760    0.000084568
     11        1          -0.000027126    0.000027905   -0.000079194
     12        1          -0.000025723    0.000024918    0.000085034
 -------------------------------------------------------------------
 Cartesian Forces:  Max     0.000588788 RMS     0.000277378

 GradGradGradGradGradGradGradGradGradGradGradGradGradGradGradGradGradGrad
 Berny optimization.
 Using GEDIIS/GDIIS optimizer.
 FormGI is forming the generalized inverse of G from B-inverse, IUseBI=4.
 Internal  Forces:  Max     0.000534564 RMS     0.000127947
 Search for a local minimum.
 Step number   2 out of a maximum of   82
 All quantities printed in internal units (Hartrees-Bohrs-Radians)
 Mixed Optimization -- En-DIIS/RFO-DIIS
 Update second derivatives using D2CorX and points    1    2
 DE= -1.98D-03 DEPred=-2.06D-03 R= 9.62D-01
 TightC=F SS=  1.41D+00  RLast= 1.50D-01 DXNew= 5.0454D-01 4.5054D-01
 Trust test= 9.62D-01 RLast= 1.50D-01 DXMaxT set to 4.51D-01
 ITU=  1  0
 Use linear search instead of GDIIS.
     Eigenvalues ---    0.00230   0.02236   0.02236   0.03416   0.04909
     Eigenvalues ---    0.04909   0.04909   0.04909   0.05339   0.05758
     Eigenvalues ---    0.05758   0.06157   0.06157   0.06492   0.07861
     Eigenvalues ---    0.07861   0.09040   0.21260   0.26331   0.26334
     Eigenvalues ---    0.28236   0.28894   0.32591   0.32597   0.32597
     Eigenvalues ---    0.32598   0.32599   0.32601   0.32602   0.32663
 RFO step:  Lambda=-2.29797511D-06 EMin= 2.30000040D-03
 Quartic linear search produced a step of -0.02023.
 Iteration  1 RMS(Cart)=  0.00050832 RMS(Int)=  0.00000071
 Iteration  2 RMS(Cart)=  0.00000001 RMS(Int)=  0.00000071
 Variable       Old X    -DE/DX   Delta X   Delta X   Delta X     New X
                                 (Linear)    (Quad)   (Total)
    R1        2.94460  -0.00053  -0.00057  -0.00126  -0.00183   2.94277
    R2        2.94455  -0.00052  -0.00057  -0.00122  -0.00179   2.94276
    R3        2.06843   0.00009   0.00059  -0.00035   0.00024   2.06867
    R4        2.06843   0.00009   0.00059  -0.00035   0.00024   2.06867
    R5        2.94456  -0.00052  -0.00057  -0.00122  -0.00180   2.94277
    R6        2.06843   0.00009   0.00059  -0.00035   0.00024   2.06867
    R7        2.06843   0.00009   0.00059  -0.00035   0.00024   2.06867
    R8        2.94458  -0.00053  -0.00057  -0.00124  -0.00181   2.94277
    R9        2.06843   0.00009   0.00059  -0.00035   0.00024   2.06867
   R10        2.06842   0.00009   0.00059  -0.00034   0.00025   2.06867
   R11        2.06844   0.00009   0.00059  -0.00036   0.00024   2.06867
   R12        2.06842   0.00009   0.00059  -0.00035   0.00025   2.06867
    A1        1.57079   0.00000   0.00000   0.00001   0.00001   1.57080
    A2        2.00049   0.00000  -0.00019   0.00015  -0.00004   2.00045
    A3        2.00035   0.00000  -0.00019   0.00017  -0.00002   2.00034
    A4        2.00045   0.00000  -0.00019   0.00018  -0.00001   2.00044
    A5        2.00042  -0.00001  -0.00018   0.00014  -0.00005   2.00037
    A6        1.88179   0.00001   0.00060  -0.00051   0.00008   1.88187
    A7        1.57080   0.00000   0.00000   0.00000  -0.00001   1.57079
    A8        2.00043   0.00000  -0.00019   0.00014  -0.00005   2.00038
    A9        2.00040   0.00000  -0.00019   0.00020   0.00001   2.00041
   A10        2.00036   0.00000  -0.00019   0.00018   0.00000   2.00036
   A11        2.00047   0.00000  -0.00019   0.00015  -0.00004   2.00043
   A12        1.88181   0.00001   0.00060  -0.00053   0.00006   1.88187
   A13        1.57079   0.00000   0.00000   0.00001   0.00001   1.57080
   A14        2.00037   0.00000  -0.00019   0.00022   0.00003   2.00041
   A15        2.00046  -0.00001  -0.00019   0.00011  -0.00007   2.00039
   A16        2.00036   0.00000  -0.00019   0.00022   0.00003   2.00039
   A17        2.00045   0.00000  -0.00019   0.00013  -0.00006   2.00039
   A18        1.88183   0.00001   0.00060  -0.00055   0.00005   1.88188
   A19        1.57081   0.00000   0.00000  -0.00001  -0.00001   1.57080
   A20        2.00033   0.00000  -0.00019   0.00020   0.00001   2.00034
   A21        2.00052  -0.00001  -0.00019   0.00012  -0.00006   2.00045
   A22        2.00032   0.00000  -0.00019   0.00020   0.00001   2.00033
   A23        2.00051   0.00000  -0.00019   0.00014  -0.00005   2.00047
   A24        1.88179   0.00001   0.00060  -0.00052   0.00008   1.88187
    D1        0.00023   0.00000   0.00000   0.00007   0.00007   0.00030
    D2       -2.04644   0.00000   0.00025  -0.00017   0.00009  -2.04635
    D3        2.04701  -0.00001  -0.00025   0.00028   0.00003   2.04704
    D4        2.04700   0.00000  -0.00026   0.00031   0.00005   2.04706
    D5        0.00033   0.00000   0.00000   0.00007   0.00007   0.00041
    D6       -2.18940  -0.00001  -0.00051   0.00052   0.00001  -2.18939
    D7       -2.04647   0.00001   0.00025  -0.00013   0.00012  -2.04635
    D8        2.19005   0.00001   0.00051  -0.00037   0.00014   2.19018
    D9        0.00031   0.00000   0.00000   0.00008   0.00007   0.00038
   D10       -0.00023   0.00000   0.00000  -0.00007  -0.00007  -0.00030
   D11        2.04637   0.00000  -0.00025   0.00019  -0.00006   2.04631
   D12       -2.04710   0.00001   0.00025  -0.00025   0.00001  -2.04709
   D13       -2.04704   0.00000   0.00026  -0.00028  -0.00003  -2.04706
   D14       -0.00043   0.00000   0.00000  -0.00002  -0.00002  -0.00045
   D15        2.18929   0.00001   0.00051  -0.00046   0.00005   2.18933
   D16        2.04641   0.00000  -0.00026   0.00016  -0.00009   2.04632
   D17       -2.19017  -0.00001  -0.00051   0.00043  -0.00009  -2.19025
   D18       -0.00045   0.00000   0.00000  -0.00002  -0.00002  -0.00047
   D19       -0.00023   0.00000   0.00000  -0.00007  -0.00007  -0.00030
   D20       -2.04688   0.00000   0.00026  -0.00037  -0.00011  -2.04699
   D21        2.04653   0.00000  -0.00025   0.00011  -0.00015   2.04639
   D22        2.04650   0.00000  -0.00025   0.00013  -0.00013   2.04637
   D23       -0.00015   0.00000   0.00000  -0.00017  -0.00017  -0.00032
   D24       -2.18992  -0.00001  -0.00051   0.00031  -0.00020  -2.19013
   D25       -2.04695   0.00000   0.00026  -0.00033  -0.00007  -2.04702
   D26        2.18959   0.00001   0.00051  -0.00063  -0.00012   2.18947
   D27       -0.00018   0.00000   0.00000  -0.00015  -0.00015  -0.00033
   D28        0.00023   0.00000   0.00000   0.00007   0.00007   0.00030
   D29       -2.04637   0.00000   0.00026  -0.00020   0.00006  -2.04632
   D30        2.04710  -0.00001  -0.00025   0.00023  -0.00002   2.04708
   D31        2.04689   0.00000  -0.00026   0.00037   0.00011   2.04701
   D32        0.00028   0.00000   0.00000   0.00010   0.00010   0.00039
   D33       -2.18943  -0.00001  -0.00051   0.00054   0.00003  -2.18940
   D34       -2.04655   0.00001   0.00025  -0.00009   0.00016  -2.04639
   D35        2.19003   0.00001   0.00051  -0.00036   0.00015   2.19018
   D36        0.00032   0.00000   0.00000   0.00007   0.00007   0.00039
         Item               Value     Threshold  Converged?
 Maximum Force            0.000535     0.000450     NO 
 RMS     Force            0.000128     0.000300     YES
 Maximum Displacement     0.000974     0.001800     YES
 RMS     Displacement     0.000508     0.001200     YES
 Predicted change in Energy=-2.008141D-06
 GradGradGradGradGradGradGradGradGradGradGradGradGradGradGradGradGradGrad

                          Input orientation:                          
 ---------------------------------------------------------------------
 Center     Atomic      Atomic             Coordinates (Angstroms)
 Number     Number       Type             X           Y           Z
 ---------------------------------------------------------------------
      1          6           0       -0.607567    0.115127    0.000035
      2          6           0        0.949681    0.115189   -0.000076
      3          6           0        0.949614    1.672433   -0.000047
      4          6           0       -0.607630    1.672368   -0.000404
      5          1           0       -1.063610   -0.341133   -0.884389
      6          1           0       -1.063373   -0.340566    0.884873
      7          1           0        1.405571   -0.340687   -0.884775
      8          1           0        1.405727   -0.340792    0.884490
      9          1           0        1.405739    2.128427   -0.884566
     10          1           0        1.405335    2.128380    0.884701
     11          1           0       -1.063333    2.127992   -0.885332
     12          1           0       -1.063872    2.128603    0.883930
 ---------------------------------------------------------------------
                    Distance matrix (angstroms):
                    1          2          3          4          5
     1  C    0.000000
     2  C    1.557248   0.000000
     3  C    2.202276   1.557245   0.000000
     4  C    1.557242   2.202278   1.557245   0.000000
     5  H    1.094693   2.245791   2.981540   2.245781   0.000000
     6  H    1.094693   2.245714   2.981169   2.245734   1.769261
     7  H    2.245747   1.094692   2.245728   2.981188   2.469181
     8  H    2.245768   1.094693   2.245779   2.981520   3.037525
     9  H    2.981493   2.245761   1.094693   2.245749   3.492337
    10  H    2.981208   2.245750   1.094691   2.245749   3.914571
    11  H    2.245713   2.981155   2.245711   1.094694   2.469126
    12  H    2.245789   2.981560   2.245803   1.094693   3.037523
                    6          7          8          9         10
     6  H    0.000000
     7  H    3.037654   0.000000
     8  H    2.469100   1.769265   0.000000
     9  H    3.914506   2.469114   3.037532   0.000000
    10  H    3.491449   3.037654   2.469172   1.769267   0.000000
    11  H    3.037664   3.491399   3.914515   2.469073   3.037653
    12  H    2.469169   3.914570   3.492396   3.037525   2.469207
                   11         12
    11  H    0.000000
    12  H    1.769261   0.000000
 Stoichiometry    C4H8
 Framework group  C1[X(C4H8)]
 Deg. of freedom    30
 Full point group                 C1      NOp   1
 Largest Abelian subgroup         C1      NOp   1
 Largest concise Abelian subgroup C1      NOp   1
                         Standard orientation:                         
 ---------------------------------------------------------------------
 Center     Atomic      Atomic             Coordinates (Angstroms)
 Number     Number       Type             X           Y           Z
 ---------------------------------------------------------------------
      1          6           0       -0.075940    1.098516   -0.000161
      2          6           0        1.098519    0.075936   -0.000050
      3          6           0        0.075938   -1.098517   -0.000078
      4          6           0       -1.098516   -0.075937    0.000278
      5          1           0       -0.120301    1.742084    0.884263
      6          1           0       -0.120495    1.741501   -0.884998
      7          1           0        1.741698    0.120414    0.884649
      8          1           0        1.741885    0.120391   -0.884616
      9          1           0        0.120535   -1.741938    0.884440
     10          1           0        0.120261   -1.741638   -0.884827
     11          1           0       -1.741389   -0.120348    0.885206
     12          1           0       -1.742197   -0.120454   -0.884055
 ---------------------------------------------------------------------
 Rotational constants (GHZ):          10.5953026          10.5952784           6.1052513
 Standard basis: 6-31G(d) (6D, 7F)
 There are    76 symmetry adapted cartesian basis functions of A   symmetry.
 There are    76 symmetry adapted basis functions of A   symmetry.
    76 basis functions,   144 primitive gaussians,    76 cartesian basis functions
    16 alpha electrons       16 beta electrons
       nuclear repulsion energy       126.0296866556 Hartrees.
 NAtoms=   12 NActive=   12 NUniq=   12 SFac= 1.00D+00 NAtFMM=   60 NAOKFM=F Big=F
 Integral buffers will be    131072 words long.
 Raffenetti 2 integral format.
 Two-electron integral symmetry is turned on.
 One-electron integrals computed using PRISM.
 NBasis=    76 RedAO= T EigKep=  2.60D-03  NBF=    76
 NBsUse=    76 1.00D-06 EigRej= -1.00D+00 NBFU=    76
 Initial guess from the checkpoint file:  "C:\Users\25012\OneDrive\Graduation Project\visualising-quantum-chemistry\visualizing-molecular-groups\calculations\C4H8.chk"
 B after Tr=     0.000000    0.000000    0.000000
         Rot=    0.847779    0.000003    0.000000    0.530350 Ang=  64.06 deg.
 Keep R1 ints in memory in canonical form, NReq=5183682.
 Requested convergence on RMS density matrix=1.00D-08 within 128 cycles.
 Requested convergence on MAX density matrix=1.00D-06.
 Requested convergence on             energy=1.00D-06.
 No special actions if energy rises.
 SCF Done:  E(RB3LYP) =  -157.211836239     A.U. after    6 cycles
            NFock=  6  Conv=0.31D-08     -V/T= 2.0103
 Calling FoFJK, ICntrl=      2127 FMM=F ISym2X=0 I1Cent= 0 IOpClX= 0 NMat=1 NMatS=1 NMatT=0.
 ***** Axes restored to original set *****
 -------------------------------------------------------------------
 Center     Atomic                   Forces (Hartrees/Bohr)
 Number     Number              X              Y              Z
 -------------------------------------------------------------------
      1        6           0.000088478    0.000077768   -0.000002951
      2        6          -0.000082200    0.000087239    0.000006630
      3        6          -0.000087831   -0.000080506   -0.000009102
      4        6           0.000079537   -0.000085625    0.000001370
      5        1          -0.000023574   -0.000022301    0.000000241
      6        1          -0.000023544   -0.000019802    0.000000761
      7        1           0.000020184   -0.000022852   -0.000001079
      8        1           0.000023441   -0.000023882   -0.000001055
      9        1           0.000025965    0.000023610    0.000002123
     10        1           0.000022095    0.000020217    0.000002194
     11        1          -0.000021398    0.000022716    0.000000375
     12        1          -0.000021154    0.000023419    0.000000493
 -------------------------------------------------------------------
 Cartesian Forces:  Max     0.000088478 RMS     0.000042293

 GradGradGradGradGradGradGradGradGradGradGradGradGradGradGradGradGradGrad
 Berny optimization.
 Using GEDIIS/GDIIS optimizer.
 FormGI is forming the generalized inverse of G from B-inverse, IUseBI=4.
 Internal  Forces:  Max     0.000039711 RMS     0.000012912
 Search for a local minimum.
 Step number   3 out of a maximum of   82
 All quantities printed in internal units (Hartrees-Bohrs-Radians)
 Mixed Optimization -- En-DIIS/RFO-DIIS
 Swapping is turned off.
 Update second derivatives using D2CorX and points    1    2    3
 DE= -2.05D-06 DEPred=-2.01D-06 R= 1.02D+00
 TightC=F SS=  1.41D+00  RLast= 3.73D-03 DXNew= 7.5771D-01 1.1183D-02
 Trust test= 1.02D+00 RLast= 3.73D-03 DXMaxT set to 4.51D-01
 ITU=  1  1  0
     Eigenvalues ---    0.00230   0.02235   0.02236   0.03416   0.04909
     Eigenvalues ---    0.04909   0.04909   0.04909   0.05339   0.05756
     Eigenvalues ---    0.05758   0.06157   0.06157   0.06479   0.07861
     Eigenvalues ---    0.07861   0.09039   0.21260   0.26329   0.26333
     Eigenvalues ---    0.27208   0.28237   0.32223   0.32591   0.32597
     Eigenvalues ---    0.32598   0.32599   0.32599   0.32601   0.32603
 En-DIIS/RFO-DIIS/Sim-DIIS IScMMF=       -3 using points:     3    2
 RFO step:  Lambda=-9.43188620D-08.
 DidBck=F Rises=F RFO-DIIS coefs:    1.11081   -0.11081
 Iteration  1 RMS(Cart)=  0.00009350 RMS(Int)=  0.00000001
 Iteration  2 RMS(Cart)=  0.00000001 RMS(Int)=  0.00000000
 Variable       Old X    -DE/DX   Delta X   Delta X   Delta X     New X
                                 (Linear)    (Quad)   (Total)
    R1        2.94277  -0.00004  -0.00020   0.00002  -0.00019   2.94259
    R2        2.94276  -0.00004  -0.00020   0.00002  -0.00018   2.94258
    R3        2.06867   0.00002   0.00003   0.00004   0.00007   2.06874
    R4        2.06867   0.00002   0.00003   0.00004   0.00007   2.06874
    R5        2.94277  -0.00004  -0.00020   0.00002  -0.00018   2.94258
    R6        2.06867   0.00002   0.00003   0.00004   0.00007   2.06874
    R7        2.06867   0.00002   0.00003   0.00004   0.00007   2.06874
    R8        2.94277  -0.00004  -0.00020   0.00002  -0.00018   2.94258
    R9        2.06867   0.00002   0.00003   0.00004   0.00007   2.06874
   R10        2.06867   0.00002   0.00003   0.00004   0.00007   2.06874
   R11        2.06867   0.00002   0.00003   0.00004   0.00006   2.06874
   R12        2.06867   0.00002   0.00003   0.00004   0.00007   2.06874
    A1        1.57080   0.00000   0.00000   0.00000   0.00000   1.57080
    A2        2.00045   0.00001   0.00000   0.00010   0.00009   2.00054
    A3        2.00034   0.00001   0.00000   0.00010   0.00010   2.00043
    A4        2.00044   0.00000   0.00000   0.00008   0.00008   2.00052
    A5        2.00037   0.00000  -0.00001   0.00005   0.00005   2.00042
    A6        1.88187  -0.00001   0.00001  -0.00026  -0.00025   1.88162
    A7        1.57079   0.00000   0.00000   0.00000   0.00000   1.57080
    A8        2.00038   0.00000  -0.00001   0.00005   0.00005   2.00043
    A9        2.00041   0.00000   0.00000   0.00009   0.00009   2.00050
   A10        2.00036   0.00000   0.00000   0.00008   0.00008   2.00044
   A11        2.00043   0.00001   0.00000   0.00010   0.00010   2.00053
   A12        1.88187  -0.00001   0.00001  -0.00026  -0.00026   1.88162
   A13        1.57080   0.00000   0.00000   0.00000   0.00000   1.57080
   A14        2.00041   0.00001   0.00000   0.00009   0.00010   2.00050
   A15        2.00039   0.00000  -0.00001   0.00005   0.00004   2.00043
   A16        2.00039   0.00001   0.00000   0.00012   0.00013   2.00052
   A17        2.00039   0.00000  -0.00001   0.00007   0.00007   2.00046
   A18        1.88188  -0.00002   0.00001  -0.00026  -0.00026   1.88162
   A19        1.57080   0.00000   0.00000   0.00000   0.00000   1.57080
   A20        2.00034   0.00001   0.00000   0.00009   0.00010   2.00044
   A21        2.00045   0.00000  -0.00001   0.00009   0.00009   2.00054
   A22        2.00033   0.00000   0.00000   0.00007   0.00008   2.00041
   A23        2.00047   0.00000  -0.00001   0.00006   0.00006   2.00053
   A24        1.88187  -0.00001   0.00001  -0.00026  -0.00025   1.88162
    D1        0.00030   0.00000   0.00001   0.00008   0.00009   0.00039
    D2       -2.04635  -0.00001   0.00001  -0.00003  -0.00002  -2.04637
    D3        2.04704   0.00001   0.00000   0.00021   0.00022   2.04726
    D4        2.04706   0.00001   0.00001   0.00019   0.00019   2.04725
    D5        0.00041   0.00000   0.00001   0.00008   0.00008   0.00049
    D6       -2.18939   0.00001   0.00000   0.00032   0.00032  -2.18907
    D7       -2.04635  -0.00001   0.00001   0.00000   0.00001  -2.04634
    D8        2.19018  -0.00001   0.00002  -0.00011  -0.00010   2.19008
    D9        0.00038   0.00000   0.00001   0.00013   0.00014   0.00053
   D10       -0.00030   0.00000  -0.00001  -0.00008  -0.00009  -0.00039
   D11        2.04631   0.00001  -0.00001   0.00003   0.00002   2.04633
   D12       -2.04709  -0.00001   0.00000  -0.00017  -0.00017  -2.04726
   D13       -2.04706  -0.00001   0.00000  -0.00021  -0.00021  -2.04727
   D14       -0.00045   0.00000   0.00000  -0.00010  -0.00010  -0.00055
   D15        2.18933  -0.00001   0.00001  -0.00030  -0.00029   2.18904
   D16        2.04632   0.00001  -0.00001   0.00005   0.00004   2.04636
   D17       -2.19025   0.00001  -0.00001   0.00015   0.00014  -2.19011
   D18       -0.00047   0.00000   0.00000  -0.00005  -0.00005  -0.00052
   D19       -0.00030   0.00000  -0.00001  -0.00008  -0.00009  -0.00039
   D20       -2.04699  -0.00001  -0.00001  -0.00024  -0.00025  -2.04724
   D21        2.04639   0.00001  -0.00002   0.00001   0.00000   2.04639
   D22        2.04637   0.00001  -0.00001   0.00000  -0.00001   2.04636
   D23       -0.00032   0.00000  -0.00002  -0.00016  -0.00018  -0.00050
   D24       -2.19013   0.00001  -0.00002   0.00009   0.00007  -2.19005
   D25       -2.04702  -0.00001  -0.00001  -0.00020  -0.00021  -2.04723
   D26        2.18947  -0.00001  -0.00001  -0.00036  -0.00038   2.18910
   D27       -0.00033   0.00000  -0.00002  -0.00011  -0.00013  -0.00046
   D28        0.00030   0.00000   0.00001   0.00008   0.00009   0.00039
   D29       -2.04632  -0.00001   0.00001  -0.00005  -0.00004  -2.04636
   D30        2.04708   0.00001   0.00000   0.00020   0.00020   2.04727
   D31        2.04701   0.00001   0.00001   0.00021   0.00022   2.04723
   D32        0.00039   0.00000   0.00001   0.00009   0.00010   0.00049
   D33       -2.18940   0.00001   0.00000   0.00033   0.00033  -2.18907
   D34       -2.04639   0.00000   0.00002   0.00001   0.00003  -2.04636
   D35        2.19018  -0.00001   0.00002  -0.00011  -0.00010   2.19008
   D36        0.00039   0.00000   0.00001   0.00013   0.00014   0.00052
         Item               Value     Threshold  Converged?
 Maximum Force            0.000040     0.000450     YES
 RMS     Force            0.000013     0.000300     YES
 Maximum Displacement     0.000269     0.001800     YES
 RMS     Displacement     0.000093     0.001200     YES
 Predicted change in Energy=-4.716078D-08
 Optimization completed.
    -- Stationary point found.
                           ----------------------------
                           !   Optimized Parameters   !
                           ! (Angstroms and Degrees)  !
 --------------------------                            --------------------------
 ! Name  Definition              Value          Derivative Info.                !
 --------------------------------------------------------------------------------
 ! R1    R(1,2)                  1.5572         -DE/DX =    0.0                 !
 ! R2    R(1,4)                  1.5572         -DE/DX =    0.0                 !
 ! R3    R(1,5)                  1.0947         -DE/DX =    0.0                 !
 ! R4    R(1,6)                  1.0947         -DE/DX =    0.0                 !
 ! R5    R(2,3)                  1.5572         -DE/DX =    0.0                 !
 ! R6    R(2,7)                  1.0947         -DE/DX =    0.0                 !
 ! R7    R(2,8)                  1.0947         -DE/DX =    0.0                 !
 ! R8    R(3,4)                  1.5572         -DE/DX =    0.0                 !
 ! R9    R(3,9)                  1.0947         -DE/DX =    0.0                 !
 ! R10   R(3,10)                 1.0947         -DE/DX =    0.0                 !
 ! R11   R(4,11)                 1.0947         -DE/DX =    0.0                 !
 ! R12   R(4,12)                 1.0947         -DE/DX =    0.0                 !
 ! A1    A(2,1,4)               90.0001         -DE/DX =    0.0                 !
 ! A2    A(2,1,5)              114.6172         -DE/DX =    0.0                 !
 ! A3    A(2,1,6)              114.6108         -DE/DX =    0.0                 !
 ! A4    A(4,1,5)              114.6168         -DE/DX =    0.0                 !
 ! A5    A(4,1,6)              114.6129         -DE/DX =    0.0                 !
 ! A6    A(5,1,6)              107.823          -DE/DX =    0.0                 !
 ! A7    A(1,2,3)               89.9998         -DE/DX =    0.0                 !
 ! A8    A(1,2,7)              114.6136         -DE/DX =    0.0                 !
 ! A9    A(1,2,8)              114.6153         -DE/DX =    0.0                 !
 ! A10   A(3,2,7)              114.6122         -DE/DX =    0.0                 !
 ! A11   A(3,2,8)              114.6163         -DE/DX =    0.0                 !
 ! A12   A(7,2,8)              107.8235         -DE/DX =    0.0                 !
 ! A13   A(2,3,4)               90.0001         -DE/DX =    0.0                 !
 ! A14   A(2,3,9)              114.6149         -DE/DX =    0.0                 !
 ! A15   A(2,3,10)             114.6141         -DE/DX =    0.0                 !
 ! A16   A(4,3,9)              114.6139         -DE/DX =    0.0                 !
 ! A17   A(4,3,10)             114.614          -DE/DX =    0.0                 !
 ! A18   A(9,3,10)             107.8237         -DE/DX =    0.0                 !
 ! A19   A(1,4,3)               90.0001         -DE/DX =    0.0                 !
 ! A20   A(1,4,11)             114.6111         -DE/DX =    0.0                 !
 ! A21   A(1,4,12)             114.6175         -DE/DX =    0.0                 !
 ! A22   A(3,4,11)             114.6107         -DE/DX =    0.0                 !
 ! A23   A(3,4,12)             114.6184         -DE/DX =    0.0                 !
 ! A24   A(11,4,12)            107.823          -DE/DX =    0.0                 !
 ! D1    D(4,1,2,3)              0.0172         -DE/DX =    0.0                 !
 ! D2    D(4,1,2,7)           -117.2472         -DE/DX =    0.0                 !
 ! D3    D(4,1,2,8)            117.2866         -DE/DX =    0.0                 !
 ! D4    D(5,1,2,3)            117.2877         -DE/DX =    0.0                 !
 ! D5    D(5,1,2,7)              0.0234         -DE/DX =    0.0                 !
 ! D6    D(5,1,2,8)           -125.4428         -DE/DX =    0.0                 !
 ! D7    D(6,1,2,3)           -117.2474         -DE/DX =    0.0                 !
 ! D8    D(6,1,2,7)            125.4882         -DE/DX =    0.0                 !
 ! D9    D(6,1,2,8)              0.022          -DE/DX =    0.0                 !
 ! D10   D(2,1,4,3)             -0.0172         -DE/DX =    0.0                 !
 ! D11   D(2,1,4,11)           117.245          -DE/DX =    0.0                 !
 ! D12   D(2,1,4,12)          -117.2897         -DE/DX =    0.0                 !
 ! D13   D(5,1,4,3)           -117.2881         -DE/DX =    0.0                 !
 ! D14   D(5,1,4,11)            -0.0258         -DE/DX =    0.0                 !
 ! D15   D(5,1,4,12)           125.4395         -DE/DX =    0.0                 !
 ! D16   D(6,1,4,3)            117.2456         -DE/DX =    0.0                 !
 ! D17   D(6,1,4,11)          -125.4922         -DE/DX =    0.0                 !
 ! D18   D(6,1,4,12)            -0.0269         -DE/DX =    0.0                 !
 ! D19   D(1,2,3,4)             -0.0172         -DE/DX =    0.0                 !
 ! D20   D(1,2,3,9)           -117.2839         -DE/DX =    0.0                 !
 ! D21   D(1,2,3,10)           117.2495         -DE/DX =    0.0                 !
 ! D22   D(7,2,3,4)            117.2484         -DE/DX =    0.0                 !
 ! D23   D(7,2,3,9)             -0.0183         -DE/DX =    0.0                 !
 ! D24   D(7,2,3,10)          -125.4849         -DE/DX =    0.0                 !
 ! D25   D(8,2,3,4)           -117.2857         -DE/DX =    0.0                 !
 ! D26   D(8,2,3,9)            125.4476         -DE/DX =    0.0                 !
 ! D27   D(8,2,3,10)            -0.019          -DE/DX =    0.0                 !
 ! D28   D(2,3,4,1)              0.0172         -DE/DX =    0.0                 !
 ! D29   D(2,3,4,11)          -117.2453         -DE/DX =    0.0                 !
 ! D30   D(2,3,4,12)           117.2888         -DE/DX =    0.0                 !
 ! D31   D(9,3,4,1)            117.2848         -DE/DX =    0.0                 !
 ! D32   D(9,3,4,11)             0.0222         -DE/DX =    0.0                 !
 ! D33   D(9,3,4,12)          -125.4436         -DE/DX =    0.0                 !
 ! D34   D(10,3,4,1)          -117.2495         -DE/DX =    0.0                 !
 ! D35   D(10,3,4,11)          125.4879         -DE/DX =    0.0                 !
 ! D36   D(10,3,4,12)            0.0221         -DE/DX =    0.0                 !
 --------------------------------------------------------------------------------
 GradGradGradGradGradGradGradGradGradGradGradGradGradGradGradGradGradGrad

                          Input orientation:                          
 ---------------------------------------------------------------------
 Center     Atomic      Atomic             Coordinates (Angstroms)
 Number     Number       Type             X           Y           Z
 ---------------------------------------------------------------------
      1          6           0       -0.607567    0.115127    0.000035
      2          6           0        0.949681    0.115189   -0.000076
      3          6           0        0.949614    1.672433   -0.000047
      4          6           0       -0.607630    1.672368   -0.000404
      5          1           0       -1.063610   -0.341133   -0.884389
      6          1           0       -1.063373   -0.340566    0.884873
      7          1           0        1.405571   -0.340687   -0.884775
      8          1           0        1.405727   -0.340792    0.884490
      9          1           0        1.405739    2.128427   -0.884566
     10          1           0        1.405335    2.128380    0.884701
     11          1           0       -1.063333    2.127992   -0.885332
     12          1           0       -1.063872    2.128603    0.883930
 ---------------------------------------------------------------------
                    Distance matrix (angstroms):
                    1          2          3          4          5
     1  C    0.000000
     2  C    1.557248   0.000000
     3  C    2.202276   1.557245   0.000000
     4  C    1.557242   2.202278   1.557245   0.000000
     5  H    1.094693   2.245791   2.981540   2.245781   0.000000
     6  H    1.094693   2.245714   2.981169   2.245734   1.769261
     7  H    2.245747   1.094692   2.245728   2.981188   2.469181
     8  H    2.245768   1.094693   2.245779   2.981520   3.037525
     9  H    2.981493   2.245761   1.094693   2.245749   3.492337
    10  H    2.981208   2.245750   1.094691   2.245749   3.914571
    11  H    2.245713   2.981155   2.245711   1.094694   2.469126
    12  H    2.245789   2.981560   2.245803   1.094693   3.037523
                    6          7          8          9         10
     6  H    0.000000
     7  H    3.037654   0.000000
     8  H    2.469100   1.769265   0.000000
     9  H    3.914506   2.469114   3.037532   0.000000
    10  H    3.491449   3.037654   2.469172   1.769267   0.000000
    11  H    3.037664   3.491399   3.914515   2.469073   3.037653
    12  H    2.469169   3.914570   3.492396   3.037525   2.469207
                   11         12
    11  H    0.000000
    12  H    1.769261   0.000000
 Stoichiometry    C4H8
 Framework group  C1[X(C4H8)]
 Deg. of freedom    30
 Full point group                 C1      NOp   1
 Largest Abelian subgroup         C1      NOp   1
 Largest concise Abelian subgroup C1      NOp   1
                         Standard orientation:                         
 ---------------------------------------------------------------------
 Center     Atomic      Atomic             Coordinates (Angstroms)
 Number     Number       Type             X           Y           Z
 ---------------------------------------------------------------------
      1          6           0       -0.075940    1.098516   -0.000161
      2          6           0        1.098519    0.075936   -0.000050
      3          6           0        0.075938   -1.098517   -0.000078
      4          6           0       -1.098516   -0.075937    0.000278
      5          1           0       -0.120301    1.742084    0.884263
      6          1           0       -0.120495    1.741501   -0.884998
      7          1           0        1.741698    0.120414    0.884649
      8          1           0        1.741885    0.120391   -0.884616
      9          1           0        0.120535   -1.741938    0.884440
     10          1           0        0.120261   -1.741638   -0.884827
     11          1           0       -1.741389   -0.120348    0.885206
     12          1           0       -1.742197   -0.120454   -0.884055
 ---------------------------------------------------------------------
 Rotational constants (GHZ):          10.5953026          10.5952784           6.1052513

 **********************************************************************

            Population analysis using the SCF density.

 **********************************************************************

 Orbital symmetries:
       Occupied  (A) (A) (A) (A) (A) (A) (A) (A) (A) (A) (A) (A)
                 (A) (A) (A) (A)
       Virtual   (A) (A) (A) (A) (A) (A) (A) (A) (A) (A) (A) (A)
                 (A) (A) (A) (A) (A) (A) (A) (A) (A) (A) (A) (A)
                 (A) (A) (A) (A) (A) (A) (A) (A) (A) (A) (A) (A)
                 (A) (A) (A) (A) (A) (A) (A) (A) (A) (A) (A) (A)
                 (A) (A) (A) (A) (A) (A) (A) (A) (A) (A) (A) (A)
 The electronic state is 1-A.
 Alpha  occ. eigenvalues --  -10.17407 -10.17389 -10.17389 -10.17372  -0.82304
 Alpha  occ. eigenvalues --   -0.64998  -0.64998  -0.53256  -0.47435  -0.46481
 Alpha  occ. eigenvalues --   -0.38000  -0.38000  -0.34649  -0.30535  -0.29481
 Alpha  occ. eigenvalues --   -0.29481
 Alpha virt. eigenvalues --    0.09467   0.09533   0.13350   0.13350   0.18712
 Alpha virt. eigenvalues --    0.18712   0.19470   0.19962   0.19962   0.26302
 Alpha virt. eigenvalues --    0.27067   0.37989   0.51099   0.51317   0.55501
 Alpha virt. eigenvalues --    0.58130   0.58130   0.63870   0.63870   0.69616
 Alpha virt. eigenvalues --    0.72287   0.72288   0.76338   0.77928   0.84941
 Alpha virt. eigenvalues --    0.87367   0.87367   0.88253   0.94131   0.94131
 Alpha virt. eigenvalues --    0.96697   0.99435   1.29066   1.29280   1.29281
 Alpha virt. eigenvalues --    1.35841   1.59133   1.70822   1.91196   1.91197
 Alpha virt. eigenvalues --    1.93941   1.97537   1.97746   1.97747   2.02185
 Alpha virt. eigenvalues --    2.04233   2.04233   2.14816   2.28623   2.28623
 Alpha virt. eigenvalues --    2.38530   2.51927   2.51927   2.64333   2.71782
 Alpha virt. eigenvalues --    2.85019   4.08738   4.32371   4.32371   4.70286
          Condensed to atoms (all electrons):
               1          2          3          4          5          6
     1  C    5.043649   0.372164  -0.153054   0.372164   0.369700   0.369702
     2  C    0.372164   5.043649   0.372163  -0.153053  -0.029405  -0.029411
     3  C   -0.153054   0.372163   5.043648   0.372165   0.007884   0.007879
     4  C    0.372164  -0.153053   0.372165   5.043648  -0.029405  -0.029410
     5  H    0.369700  -0.029405   0.007884  -0.029405   0.591281  -0.036313
     6  H    0.369702  -0.029411   0.007879  -0.029410  -0.036313   0.591286
     7  H   -0.029409   0.369701  -0.029410   0.007879  -0.008205   0.003556
     8  H   -0.029406   0.369702  -0.029406   0.007884   0.003554  -0.008206
     9  H    0.007884  -0.029407   0.369701  -0.029407  -0.000280  -0.000387
    10  H    0.007880  -0.029409   0.369701  -0.029409  -0.000387  -0.000278
    11  H   -0.029411   0.007879  -0.029411   0.369701  -0.008206   0.003556
    12  H   -0.029405   0.007884  -0.029405   0.369701   0.003554  -0.008205
               7          8          9         10         11         12
     1  C   -0.029409  -0.029406   0.007884   0.007880  -0.029411  -0.029405
     2  C    0.369701   0.369702  -0.029407  -0.029409   0.007879   0.007884
     3  C   -0.029410  -0.029406   0.369701   0.369701  -0.029411  -0.029405
     4  C    0.007879   0.007884  -0.029407  -0.029409   0.369701   0.369701
     5  H   -0.008205   0.003554  -0.000280  -0.000387  -0.008206   0.003554
     6  H    0.003556  -0.008206  -0.000387  -0.000278   0.003556  -0.008205
     7  H    0.591285  -0.036312  -0.008206   0.003556  -0.000278  -0.000387
     8  H   -0.036312   0.591281   0.003554  -0.008205  -0.000387  -0.000280
     9  H   -0.008206   0.003554   0.591284  -0.036312  -0.008207   0.003554
    10  H    0.003556  -0.008205  -0.036312   0.591281   0.003556  -0.008204
    11  H   -0.000278  -0.000387  -0.008207   0.003556   0.591290  -0.036313
    12  H   -0.000387  -0.000280   0.003554  -0.008204  -0.036313   0.591278
 Mulliken charges:
               1
     1  C   -0.272457
     2  C   -0.272458
     3  C   -0.272457
     4  C   -0.272457
     5  H    0.136227
     6  H    0.136230
     7  H    0.136230
     8  H    0.136228
     9  H    0.136227
    10  H    0.136230
    11  H    0.136229
    12  H    0.136227
 Sum of Mulliken charges =   0.00000
 Mulliken charges with hydrogens summed into heavy atoms:
               1
     1  C    0.000000
     2  C    0.000000
     3  C    0.000001
     4  C    0.000000
 Electronic spatial extent (au):  <R**2>=            272.3360
 Charge=              0.0000 electrons
 Dipole moment (field-independent basis, Debye):
    X=              0.0000    Y=              0.0000    Z=              0.0000  Tot=              0.0000
 Quadrupole moment (field-independent basis, Debye-Ang):
   XX=            -26.9280   YY=            -26.9280   ZZ=            -25.4664
   XY=              0.0000   XZ=              0.0002   YZ=              0.0001
 Traceless Quadrupole moment (field-independent basis, Debye-Ang):
   XX=             -0.4872   YY=             -0.4872   ZZ=              0.9744
   XY=              0.0000   XZ=              0.0002   YZ=              0.0001
 Octapole moment (field-independent basis, Debye-Ang**2):
  XXX=              0.0000  YYY=              0.0000  ZZZ=              0.0001  XYY=              0.0000
  XXY=              0.0000  XXZ=             -0.0005  XZZ=              0.0000  YZZ=              0.0000
  YYZ=              0.0003  XYZ=             -0.0001
 Hexadecapole moment (field-independent basis, Debye-Ang**3):
 XXXX=           -159.3777 YYYY=           -159.3774 ZZZZ=            -53.4034 XXXY=              0.4037
 XXXZ=              0.0095 YYYX=             -0.4035 YYYZ=              0.0037 ZZZX=              0.0067
 ZZZY=              0.0022 XXYY=            -55.0257 XXZZ=            -33.0320 YYZZ=            -33.0319
 XXYZ=              0.0010 YYXZ=              0.0032 ZZXY=              0.0000
 N-N= 1.260296866556D+02 E-N=-6.151449934603D+02  KE= 1.556153480461D+02
 1|1|UNPC-LAPTOP|FOpt|RB3LYP|6-31G(d)|C4H8|25012|20-Apr-2026|0||# opt f
 req b3lyp/6-31g(d) geom=connectivity||Title Card Required||0,1|C,-0.60
 75669463,0.115126554,0.0000348776|C,0.9496809226,0.1151886355,-0.00007
 58334|C,0.9496140921,1.67243346,-0.0000472822|C,-0.6076304982,1.672368
 0505,-0.0004040727|H,-1.0636098643,-0.341133294,-0.8843885596|H,-1.063
 3733049,-0.3405661162,0.8848725724|H,1.4055712958,-0.3406869601,-0.884
 7749968|H,1.4057270119,-0.3407916748,0.8844903754|H,1.4057391864,2.128
 4274281,-0.8845659024|H,1.4053349105,2.1283804644,0.884700945|H,-1.063
 3333495,2.127992361,-0.8853316838|H,-1.0638722561,2.1286026115,0.88392
 95603||Version=EM64W-G16RevA.03|State=1-A|HF=-157.2118362|RMSD=3.061e-
 009|RMSF=4.229e-005|Dipole=0.,0.0000002,-0.0000047|Quadrupole=-0.36224
 21,-0.3622131,0.7244551,-0.0000033,-0.0000851,0.0001401|PG=C01 [X(C4H8
 )]||@


 LOGIC IS A SYSTEMATIC METHOD OF COMING TO THE
 WRONG CONCLUSION WITH CONFIDENCE.
 Job cpu time:       0 days  0 hours  1 minutes 56.0 seconds.
 Elapsed time:       0 days  0 hours  1 minutes 49.8 seconds.
 File lengths (MBytes):  RWF=      6 Int=      0 D2E=      0 Chk=      2 Scr=      1
 Normal termination of Gaussian 16 at Mon Apr 20 13:08:36 2026.
 Link1:  Proceeding to internal job step number  2.
 --------------------------------------------------------------------
 #N Geom=AllCheck Guess=TCheck SCRF=Check GenChk RB3LYP/6-31G(d) Freq
 --------------------------------------------------------------------
 1/10=4,29=7,30=1,38=1,40=1/1,3;
 2/12=2,40=1/2;
 3/5=1,6=6,7=1,11=2,14=-4,25=1,30=1,70=2,71=2,74=-5,116=1,140=1/1,2,3;
 4/5=101/1;
 5/5=2,38=6,98=1/2;
 8/6=4,10=90,11=11/1;
 11/6=1,8=1,9=11,15=111,16=1/1,2,10;
 10/6=1/2;
 6/7=2,8=2,9=2,10=2,28=1/1;
 7/8=1,10=1,25=1/1,2,3,16;
 1/10=4,30=1/3;
 99//99;
 Structure from the checkpoint file:  "C:\Users\25012\OneDrive\Graduation Project\visualising-quantum-chemistry\visualizing-molecular-groups\calculations\C4H8.chk"
 -------------------
 Title Card Required
 -------------------
 Charge =  0 Multiplicity = 1
 Redundant internal coordinates found in file.  (old form).
 C,0,-0.6075669463,0.115126554,0.0000348776
 C,0,0.9496809226,0.1151886355,-0.0000758334
 C,0,0.9496140921,1.67243346,-0.0000472822
 C,0,-0.6076304982,1.6723680505,-0.0004040727
 H,0,-1.0636098643,-0.341133294,-0.8843885596
 H,0,-1.0633733049,-0.3405661162,0.8848725724
 H,0,1.4055712958,-0.3406869601,-0.8847749968
 H,0,1.4057270119,-0.3407916748,0.8844903754
 H,0,1.4057391864,2.1284274281,-0.8845659024
 H,0,1.4053349105,2.1283804644,0.884700945
 H,0,-1.0633333495,2.127992361,-0.8853316838
 H,0,-1.0638722561,2.1286026115,0.8839295603
 Recover connectivity data from disk.

 GradGradGradGradGradGradGradGradGradGradGradGradGradGradGradGradGradGrad
 Berny optimization.
 Initialization pass.
                           ----------------------------
                           !    Initial Parameters    !
                           ! (Angstroms and Degrees)  !
 --------------------------                            --------------------------
 ! Name  Definition              Value          Derivative Info.                !
 --------------------------------------------------------------------------------
 ! R1    R(1,2)                  1.5572         calculate D2E/DX2 analytically  !
 ! R2    R(1,4)                  1.5572         calculate D2E/DX2 analytically  !
 ! R3    R(1,5)                  1.0947         calculate D2E/DX2 analytically  !
 ! R4    R(1,6)                  1.0947         calculate D2E/DX2 analytically  !
 ! R5    R(2,3)                  1.5572         calculate D2E/DX2 analytically  !
 ! R6    R(2,7)                  1.0947         calculate D2E/DX2 analytically  !
 ! R7    R(2,8)                  1.0947         calculate D2E/DX2 analytically  !
 ! R8    R(3,4)                  1.5572         calculate D2E/DX2 analytically  !
 ! R9    R(3,9)                  1.0947         calculate D2E/DX2 analytically  !
 ! R10   R(3,10)                 1.0947         calculate D2E/DX2 analytically  !
 ! R11   R(4,11)                 1.0947         calculate D2E/DX2 analytically  !
 ! R12   R(4,12)                 1.0947         calculate D2E/DX2 analytically  !
 ! A1    A(2,1,4)               90.0001         calculate D2E/DX2 analytically  !
 ! A2    A(2,1,5)              114.6172         calculate D2E/DX2 analytically  !
 ! A3    A(2,1,6)              114.6108         calculate D2E/DX2 analytically  !
 ! A4    A(4,1,5)              114.6168         calculate D2E/DX2 analytically  !
 ! A5    A(4,1,6)              114.6129         calculate D2E/DX2 analytically  !
 ! A6    A(5,1,6)              107.823          calculate D2E/DX2 analytically  !
 ! A7    A(1,2,3)               89.9998         calculate D2E/DX2 analytically  !
 ! A8    A(1,2,7)              114.6136         calculate D2E/DX2 analytically  !
 ! A9    A(1,2,8)              114.6153         calculate D2E/DX2 analytically  !
 ! A10   A(3,2,7)              114.6122         calculate D2E/DX2 analytically  !
 ! A11   A(3,2,8)              114.6163         calculate D2E/DX2 analytically  !
 ! A12   A(7,2,8)              107.8235         calculate D2E/DX2 analytically  !
 ! A13   A(2,3,4)               90.0001         calculate D2E/DX2 analytically  !
 ! A14   A(2,3,9)              114.6149         calculate D2E/DX2 analytically  !
 ! A15   A(2,3,10)             114.6141         calculate D2E/DX2 analytically  !
 ! A16   A(4,3,9)              114.6139         calculate D2E/DX2 analytically  !
 ! A17   A(4,3,10)             114.614          calculate D2E/DX2 analytically  !
 ! A18   A(9,3,10)             107.8237         calculate D2E/DX2 analytically  !
 ! A19   A(1,4,3)               90.0001         calculate D2E/DX2 analytically  !
 ! A20   A(1,4,11)             114.6111         calculate D2E/DX2 analytically  !
 ! A21   A(1,4,12)             114.6175         calculate D2E/DX2 analytically  !
 ! A22   A(3,4,11)             114.6107         calculate D2E/DX2 analytically  !
 ! A23   A(3,4,12)             114.6184         calculate D2E/DX2 analytically  !
 ! A24   A(11,4,12)            107.823          calculate D2E/DX2 analytically  !
 ! D1    D(4,1,2,3)              0.0172         calculate D2E/DX2 analytically  !
 ! D2    D(4,1,2,7)           -117.2472         calculate D2E/DX2 analytically  !
 ! D3    D(4,1,2,8)            117.2866         calculate D2E/DX2 analytically  !
 ! D4    D(5,1,2,3)            117.2877         calculate D2E/DX2 analytically  !
 ! D5    D(5,1,2,7)              0.0234         calculate D2E/DX2 analytically  !
 ! D6    D(5,1,2,8)           -125.4428         calculate D2E/DX2 analytically  !
 ! D7    D(6,1,2,3)           -117.2474         calculate D2E/DX2 analytically  !
 ! D8    D(6,1,2,7)            125.4882         calculate D2E/DX2 analytically  !
 ! D9    D(6,1,2,8)              0.022          calculate D2E/DX2 analytically  !
 ! D10   D(2,1,4,3)             -0.0172         calculate D2E/DX2 analytically  !
 ! D11   D(2,1,4,11)           117.245          calculate D2E/DX2 analytically  !
 ! D12   D(2,1,4,12)          -117.2897         calculate D2E/DX2 analytically  !
 ! D13   D(5,1,4,3)           -117.2881         calculate D2E/DX2 analytically  !
 ! D14   D(5,1,4,11)            -0.0258         calculate D2E/DX2 analytically  !
 ! D15   D(5,1,4,12)           125.4395         calculate D2E/DX2 analytically  !
 ! D16   D(6,1,4,3)            117.2456         calculate D2E/DX2 analytically  !
 ! D17   D(6,1,4,11)          -125.4922         calculate D2E/DX2 analytically  !
 ! D18   D(6,1,4,12)            -0.0269         calculate D2E/DX2 analytically  !
 ! D19   D(1,2,3,4)             -0.0172         calculate D2E/DX2 analytically  !
 ! D20   D(1,2,3,9)           -117.2839         calculate D2E/DX2 analytically  !
 ! D21   D(1,2,3,10)           117.2495         calculate D2E/DX2 analytically  !
 ! D22   D(7,2,3,4)            117.2484         calculate D2E/DX2 analytically  !
 ! D23   D(7,2,3,9)             -0.0183         calculate D2E/DX2 analytically  !
 ! D24   D(7,2,3,10)          -125.4849         calculate D2E/DX2 analytically  !
 ! D25   D(8,2,3,4)           -117.2857         calculate D2E/DX2 analytically  !
 ! D26   D(8,2,3,9)            125.4476         calculate D2E/DX2 analytically  !
 ! D27   D(8,2,3,10)            -0.019          calculate D2E/DX2 analytically  !
 ! D28   D(2,3,4,1)              0.0172         calculate D2E/DX2 analytically  !
 ! D29   D(2,3,4,11)          -117.2453         calculate D2E/DX2 analytically  !
 ! D30   D(2,3,4,12)           117.2888         calculate D2E/DX2 analytically  !
 ! D31   D(9,3,4,1)            117.2848         calculate D2E/DX2 analytically  !
 ! D32   D(9,3,4,11)             0.0222         calculate D2E/DX2 analytically  !
 ! D33   D(9,3,4,12)          -125.4436         calculate D2E/DX2 analytically  !
 ! D34   D(10,3,4,1)          -117.2495         calculate D2E/DX2 analytically  !
 ! D35   D(10,3,4,11)          125.4879         calculate D2E/DX2 analytically  !
 ! D36   D(10,3,4,12)            0.0221         calculate D2E/DX2 analytically  !
 --------------------------------------------------------------------------------
 Trust Radius=3.00D-01 FncErr=1.00D-07 GrdErr=1.00D-07 EigMax=2.50D+02 EigMin=1.00D-04
 Number of steps in this run=      2 maximum allowed number of steps=      2.
 GradGradGradGradGradGradGradGradGradGradGradGradGradGradGradGradGradGrad

                          Input orientation:                          
 ---------------------------------------------------------------------
 Center     Atomic      Atomic             Coordinates (Angstroms)
 Number     Number       Type             X           Y           Z
 ---------------------------------------------------------------------
      1          6           0       -0.607567    0.115127    0.000035
      2          6           0        0.949681    0.115189   -0.000076
      3          6           0        0.949614    1.672433   -0.000047
      4          6           0       -0.607630    1.672368   -0.000404
      5          1           0       -1.063610   -0.341133   -0.884389
      6          1           0       -1.063373   -0.340566    0.884873
      7          1           0        1.405571   -0.340687   -0.884775
      8          1           0        1.405727   -0.340792    0.884490
      9          1           0        1.405739    2.128427   -0.884566
     10          1           0        1.405335    2.128380    0.884701
     11          1           0       -1.063333    2.127992   -0.885332
     12          1           0       -1.063872    2.128603    0.883930
 ---------------------------------------------------------------------
                    Distance matrix (angstroms):
                    1          2          3          4          5
     1  C    0.000000
     2  C    1.557248   0.000000
     3  C    2.202276   1.557245   0.000000
     4  C    1.557242   2.202278   1.557245   0.000000
     5  H    1.094693   2.245791   2.981540   2.245781   0.000000
     6  H    1.094693   2.245714   2.981169   2.245734   1.769261
     7  H    2.245747   1.094692   2.245728   2.981188   2.469181
     8  H    2.245768   1.094693   2.245779   2.981520   3.037525
     9  H    2.981493   2.245761   1.094693   2.245749   3.492337
    10  H    2.981208   2.245750   1.094691   2.245749   3.914571
    11  H    2.245713   2.981155   2.245711   1.094694   2.469126
    12  H    2.245789   2.981560   2.245803   1.094693   3.037523
                    6          7          8          9         10
     6  H    0.000000
     7  H    3.037654   0.000000
     8  H    2.469100   1.769265   0.000000
     9  H    3.914506   2.469114   3.037532   0.000000
    10  H    3.491449   3.037654   2.469172   1.769267   0.000000
    11  H    3.037664   3.491399   3.914515   2.469073   3.037653
    12  H    2.469169   3.914570   3.492396   3.037525   2.469207
                   11         12
    11  H    0.000000
    12  H    1.769261   0.000000
 Stoichiometry    C4H8
 Framework group  C1[X(C4H8)]
 Deg. of freedom    30
 Full point group                 C1      NOp   1
 Largest Abelian subgroup         C1      NOp   1
 Largest concise Abelian subgroup C1      NOp   1
                         Standard orientation:                         
 ---------------------------------------------------------------------
 Center     Atomic      Atomic             Coordinates (Angstroms)
 Number     Number       Type             X           Y           Z
 ---------------------------------------------------------------------
      1          6           0       -0.075940    1.098516   -0.000161
      2          6           0        1.098519    0.075936   -0.000050
      3          6           0        0.075938   -1.098517   -0.000078
      4          6           0       -1.098516   -0.075937    0.000278
      5          1           0       -0.120301    1.742084    0.884263
      6          1           0       -0.120495    1.741501   -0.884998
      7          1           0        1.741698    0.120414    0.884649
      8          1           0        1.741885    0.120391   -0.884616
      9          1           0        0.120535   -1.741938    0.884440
     10          1           0        0.120261   -1.741638   -0.884827
     11          1           0       -1.741389   -0.120348    0.885206
     12          1           0       -1.742197   -0.120454   -0.884055
 ---------------------------------------------------------------------
 Rotational constants (GHZ):          10.5953026          10.5952784           6.1052513
 Standard basis: 6-31G(d) (6D, 7F)
 There are    76 symmetry adapted cartesian basis functions of A   symmetry.
 There are    76 symmetry adapted basis functions of A   symmetry.
    76 basis functions,   144 primitive gaussians,    76 cartesian basis functions
    16 alpha electrons       16 beta electrons
       nuclear repulsion energy       126.0296866556 Hartrees.
 NAtoms=   12 NActive=   12 NUniq=   12 SFac= 1.00D+00 NAtFMM=   60 NAOKFM=F Big=F
 Integral buffers will be    131072 words long.
 Raffenetti 2 integral format.
 Two-electron integral symmetry is turned on.
 One-electron integrals computed using PRISM.
 NBasis=    76 RedAO= T EigKep=  2.60D-03  NBF=    76
 NBsUse=    76 1.00D-06 EigRej= -1.00D+00 NBFU=    76
 Initial guess from the checkpoint file:  "C:\Users\25012\OneDrive\Graduation Project\visualising-quantum-chemistry\visualizing-molecular-groups\calculations\C4H8.chk"
 B after Tr=     0.000000    0.000000    0.000000
         Rot=    1.000000    0.000000    0.000000    0.000000 Ang=   0.00 deg.
 Keep R1 ints in memory in canonical form, NReq=5183682.
 Requested convergence on RMS density matrix=1.00D-08 within 128 cycles.
 Requested convergence on MAX density matrix=1.00D-06.
 Requested convergence on             energy=1.00D-06.
 No special actions if energy rises.
 SCF Done:  E(RB3LYP) =  -157.211836239     A.U. after    1 cycles
            NFock=  1  Conv=0.19D-08     -V/T= 2.0103
 DoSCS=F DFT=T ScalE2(SS,OS)=  1.000000  1.000000
 Range of M.O.s used for correlation:     1    76
 NBasis=    76 NAE=    16 NBE=    16 NFC=     0 NFV=     0
 NROrb=     76 NOA=    16 NOB=    16 NVA=    60 NVB=    60
 Symmetrizing basis deriv contribution to polar:
 IMax=3 JMax=2 DiffMx= 0.00D+00
 G2DrvN: will do    13 centers at a time, making    1 passes.
 Calling FoFCou, ICntrl=  3107 FMM=F I1Cent=   0 AccDes= 0.00D+00.
 End of G2Drv F.D. properties file   721 does not exist.
 End of G2Drv F.D. properties file   722 does not exist.
 End of G2Drv F.D. properties file   788 does not exist.
          IDoAtm=111111111111
          Differentiating once with respect to electric field.
                with respect to dipole field.
          Differentiating once with respect to nuclear coordinates.
 Keep R1 ints in memory in canonical form, NReq=5192005.
          There are    39 degrees of freedom in the 1st order CPHF.  IDoFFX=6 NUNeed=     3.
     36 vectors produced by pass  0 Test12= 2.46D-15 2.56D-09 XBig12= 2.26D+01 1.79D+00.
 AX will form    36 AO Fock derivatives at one time.
     36 vectors produced by pass  1 Test12= 2.46D-15 2.56D-09 XBig12= 6.61D-01 2.44D-01.
     36 vectors produced by pass  2 Test12= 2.46D-15 2.56D-09 XBig12= 2.73D-03 1.79D-02.
     36 vectors produced by pass  3 Test12= 2.46D-15 2.56D-09 XBig12= 1.03D-06 3.06D-04.
     36 vectors produced by pass  4 Test12= 2.46D-15 2.56D-09 XBig12= 1.32D-09 8.83D-06.
     15 vectors produced by pass  5 Test12= 2.46D-15 2.56D-09 XBig12= 8.36D-13 1.81D-07.
      2 vectors produced by pass  6 Test12= 2.46D-15 2.56D-09 XBig12= 3.16D-16 3.44D-09.
 InvSVY:  IOpt=1 It=  1 EMax= 3.55D-15
 Solved reduced A of dimension   197 with    39 vectors.
 Isotropic polarizability for W=    0.000000       39.85 Bohr**3.
 End of Minotr F.D. properties file   721 does not exist.
 End of Minotr F.D. properties file   722 does not exist.
 End of Minotr F.D. properties file   788 does not exist.

 **********************************************************************

            Population analysis using the SCF density.

 **********************************************************************

 Orbital symmetries:
       Occupied  (A) (A) (A) (A) (A) (A) (A) (A) (A) (A) (A) (A)
                 (A) (A) (A) (A)
       Virtual   (A) (A) (A) (A) (A) (A) (A) (A) (A) (A) (A) (A)
                 (A) (A) (A) (A) (A) (A) (A) (A) (A) (A) (A) (A)
                 (A) (A) (A) (A) (A) (A) (A) (A) (A) (A) (A) (A)
                 (A) (A) (A) (A) (A) (A) (A) (A) (A) (A) (A) (A)
                 (A) (A) (A) (A) (A) (A) (A) (A) (A) (A) (A) (A)
 The electronic state is 1-A.
 Alpha  occ. eigenvalues --  -10.17407 -10.17389 -10.17389 -10.17372  -0.82304
 Alpha  occ. eigenvalues --   -0.64998  -0.64998  -0.53256  -0.47435  -0.46481
 Alpha  occ. eigenvalues --   -0.38000  -0.38000  -0.34649  -0.30535  -0.29481
 Alpha  occ. eigenvalues --   -0.29481
 Alpha virt. eigenvalues --    0.09467   0.09533   0.13350   0.13350   0.18712
 Alpha virt. eigenvalues --    0.18712   0.19470   0.19962   0.19962   0.26302
 Alpha virt. eigenvalues --    0.27067   0.37989   0.51099   0.51317   0.55501
 Alpha virt. eigenvalues --    0.58130   0.58130   0.63870   0.63870   0.69616
 Alpha virt. eigenvalues --    0.72287   0.72288   0.76338   0.77928   0.84941
 Alpha virt. eigenvalues --    0.87367   0.87367   0.88253   0.94131   0.94131
 Alpha virt. eigenvalues --    0.96697   0.99435   1.29066   1.29280   1.29281
 Alpha virt. eigenvalues --    1.35841   1.59133   1.70822   1.91196   1.91197
 Alpha virt. eigenvalues --    1.93941   1.97537   1.97746   1.97747   2.02185
 Alpha virt. eigenvalues --    2.04233   2.04233   2.14816   2.28623   2.28623
 Alpha virt. eigenvalues --    2.38530   2.51927   2.51927   2.64333   2.71782
 Alpha virt. eigenvalues --    2.85019   4.08738   4.32371   4.32371   4.70286
          Condensed to atoms (all electrons):
               1          2          3          4          5          6
     1  C    5.043649   0.372164  -0.153054   0.372164   0.369700   0.369702
     2  C    0.372164   5.043649   0.372163  -0.153053  -0.029405  -0.029411
     3  C   -0.153054   0.372163   5.043648   0.372165   0.007884   0.007879
     4  C    0.372164  -0.153053   0.372165   5.043648  -0.029405  -0.029410
     5  H    0.369700  -0.029405   0.007884  -0.029405   0.591281  -0.036313
     6  H    0.369702  -0.029411   0.007879  -0.029410  -0.036313   0.591286
     7  H   -0.029409   0.369701  -0.029410   0.007879  -0.008205   0.003556
     8  H   -0.029406   0.369702  -0.029406   0.007884   0.003554  -0.008206
     9  H    0.007884  -0.029407   0.369701  -0.029407  -0.000280  -0.000387
    10  H    0.007880  -0.029409   0.369701  -0.029409  -0.000387  -0.000278
    11  H   -0.029411   0.007879  -0.029411   0.369701  -0.008206   0.003556
    12  H   -0.029405   0.007884  -0.029405   0.369701   0.003554  -0.008205
               7          8          9         10         11         12
     1  C   -0.029409  -0.029406   0.007884   0.007880  -0.029411  -0.029405
     2  C    0.369701   0.369702  -0.029407  -0.029409   0.007879   0.007884
     3  C   -0.029410  -0.029406   0.369701   0.369701  -0.029411  -0.029405
     4  C    0.007879   0.007884  -0.029407  -0.029409   0.369701   0.369701
     5  H   -0.008205   0.003554  -0.000280  -0.000387  -0.008206   0.003554
     6  H    0.003556  -0.008206  -0.000387  -0.000278   0.003556  -0.008205
     7  H    0.591285  -0.036312  -0.008206   0.003556  -0.000278  -0.000387
     8  H   -0.036312   0.591281   0.003554  -0.008205  -0.000387  -0.000280
     9  H   -0.008206   0.003554   0.591284  -0.036312  -0.008207   0.003554
    10  H    0.003556  -0.008205  -0.036312   0.591281   0.003556  -0.008204
    11  H   -0.000278  -0.000387  -0.008207   0.003556   0.591290  -0.036313
    12  H   -0.000387  -0.000280   0.003554  -0.008204  -0.036313   0.591278
 Mulliken charges:
               1
     1  C   -0.272457
     2  C   -0.272458
     3  C   -0.272457
     4  C   -0.272457
     5  H    0.136227
     6  H    0.136230
     7  H    0.136230
     8  H    0.136228
     9  H    0.136227
    10  H    0.136230
    11  H    0.136229
    12  H    0.136228
 Sum of Mulliken charges =   0.00000
 Mulliken charges with hydrogens summed into heavy atoms:
               1
     1  C    0.000000
     2  C    0.000000
     3  C    0.000001
     4  C    0.000000
 APT charges:
               1
     1  C    0.100867
     2  C    0.100865
     3  C    0.100866
     4  C    0.100867
     5  H   -0.050439
     6  H   -0.050428
     7  H   -0.050427
     8  H   -0.050439
     9  H   -0.050440
    10  H   -0.050425
    11  H   -0.050429
    12  H   -0.050437
 Sum of APT charges =   0.00000
 APT charges with hydrogens summed into heavy atoms:
               1
     1  C    0.000000
     2  C   -0.000001
     3  C    0.000001
     4  C    0.000000
 Electronic spatial extent (au):  <R**2>=            272.3360
 Charge=              0.0000 electrons
 Dipole moment (field-independent basis, Debye):
    X=              0.0000    Y=              0.0000    Z=              0.0000  Tot=              0.0000
 Quadrupole moment (field-independent basis, Debye-Ang):
   XX=            -26.9280   YY=            -26.9280   ZZ=            -25.4664
   XY=              0.0000   XZ=              0.0002   YZ=              0.0001
 Traceless Quadrupole moment (field-independent basis, Debye-Ang):
   XX=             -0.4872   YY=             -0.4872   ZZ=              0.9744
   XY=              0.0000   XZ=              0.0002   YZ=              0.0001
 Octapole moment (field-independent basis, Debye-Ang**2):
  XXX=              0.0000  YYY=              0.0000  ZZZ=              0.0001  XYY=              0.0000
  XXY=              0.0000  XXZ=             -0.0005  XZZ=              0.0000  YZZ=              0.0000
  YYZ=              0.0003  XYZ=             -0.0001
 Hexadecapole moment (field-independent basis, Debye-Ang**3):
 XXXX=           -159.3776 YYYY=           -159.3774 ZZZZ=            -53.4034 XXXY=              0.4037
 XXXZ=              0.0095 YYYX=             -0.4035 YYYZ=              0.0037 ZZZX=              0.0067
 ZZZY=              0.0022 XXYY=            -55.0257 XXZZ=            -33.0320 YYZZ=            -33.0319
 XXYZ=              0.0010 YYXZ=              0.0032 ZZXY=              0.0000
 N-N= 1.260296866556D+02 E-N=-6.151449937423D+02  KE= 1.556153481157D+02
  Exact polarizability:  40.729   0.000  40.729   0.000   0.000  38.077
 Approx polarizability:  51.266   0.000  51.266   0.000   0.000  53.286
 Calling FoFJK, ICntrl=    100127 FMM=F ISym2X=0 I1Cent= 0 IOpClX= 0 NMat=1 NMatS=1 NMatT=0.
 Full mass-weighted force constant matrix:
 Low frequencies --- -132.3144   -3.1002   -1.4054   -0.9863   -0.0010   -0.0008
 Low frequencies ---   -0.0007  743.1609  743.1642
 ******    1 imaginary frequencies (negative Signs) ****** 
 Diagonal vibrational polarizability:
        0.3271747       0.3271727       0.4544824
 Harmonic frequencies (cm**-1), IR intensities (KM/Mole), Raman scattering
 activities (A**4/AMU), depolarization ratios for plane and unpolarized
 incident light, reduced masses (AMU), force constants (mDyne/A),
 and normal coordinates:
                      1                      2                      3
                      A                      A                      A
 Frequencies --   -132.3144               743.1609               743.1642
 Red. masses --      1.4579                 1.1258                 1.1258
 Frc consts  --      0.0150                 0.3663                 0.3663
 IR Inten    --      0.0000                 0.0000                 0.0000
  Atom  AN      X      Y      Z        X      Y      Z        X      Y      Z
     1   6     0.00   0.00   0.10     0.00   0.00  -0.07     0.00   0.00  -0.01
     2   6     0.00   0.00  -0.10     0.00   0.00  -0.01     0.00   0.00   0.07
     3   6     0.00   0.00   0.10     0.00   0.00   0.07     0.00   0.00   0.01
     4   6     0.00   0.00  -0.10     0.00   0.00   0.01     0.00   0.00  -0.07
     5   1     0.02  -0.22   0.26     0.07  -0.37   0.20    -0.23  -0.09   0.04
     6   1    -0.02   0.22   0.26    -0.07   0.37   0.20     0.23   0.09   0.04
     7   1     0.22   0.02  -0.26    -0.09   0.23   0.04     0.37   0.07  -0.20
     8   1    -0.22  -0.02  -0.26     0.09  -0.23   0.04    -0.37  -0.07  -0.20
     9   1    -0.02   0.22   0.26     0.07  -0.37  -0.20    -0.23  -0.09  -0.04
    10   1     0.02  -0.22   0.26    -0.07   0.37  -0.20     0.23   0.09  -0.04
    11   1    -0.22  -0.02  -0.26    -0.09   0.23  -0.04     0.37   0.07   0.20
    12   1     0.22   0.02  -0.26     0.09  -0.23  -0.04    -0.37  -0.07   0.20
                      4                      5                      6
                      A                      A                      A
 Frequencies --    749.0365               758.7381               925.2444
 Red. masses --      1.0516                 5.1331                 2.4698
 Frc consts  --      0.3476                 1.7411                 1.2458
 IR Inten    --      2.8934                 0.0004                 1.3530
  Atom  AN      X      Y      Z        X      Y      Z        X      Y      Z
     1   6     0.00   0.00  -0.03    -0.02   0.31   0.00    -0.12   0.14   0.00
     2   6     0.00   0.00  -0.03    -0.31  -0.02   0.00     0.15  -0.10   0.00
     3   6     0.00   0.00  -0.03     0.02  -0.31   0.00    -0.12   0.14   0.00
     4   6     0.00   0.00  -0.03     0.31   0.02   0.00     0.15  -0.10   0.00
     5   1     0.02  -0.30   0.19    -0.02   0.29   0.02    -0.31   0.11   0.01
     6   1    -0.02   0.30   0.19    -0.02   0.27  -0.03    -0.31   0.11  -0.01
     7   1    -0.30  -0.02   0.19    -0.27  -0.02  -0.03     0.15  -0.30   0.01
     8   1     0.30   0.02   0.19    -0.29  -0.02   0.02     0.15  -0.29  -0.01
     9   1    -0.02   0.30   0.19     0.02  -0.29   0.02    -0.31   0.11  -0.01
    10   1     0.02  -0.30   0.19     0.02  -0.27  -0.03    -0.31   0.11   0.01
    11   1     0.30   0.02   0.19     0.27   0.02  -0.03     0.15  -0.29  -0.01
    12   1    -0.30  -0.02   0.19     0.29   0.02   0.02     0.15  -0.30   0.01
                      7                      8                      9
                      A                      A                      A
 Frequencies --    925.2500               983.0524               986.4503
 Red. masses --      2.4698                 2.8875                 1.0078
 Frc consts  --      1.2457                 1.6441                 0.5778
 IR Inten    --      1.3531                 0.0000                 0.0000
  Atom  AN      X      Y      Z        X      Y      Z        X      Y      Z
     1   6     0.10   0.15   0.00    -0.21  -0.01   0.00     0.00   0.00   0.00
     2   6    -0.14  -0.12   0.00     0.01  -0.21   0.00     0.00   0.00   0.00
     3   6     0.10   0.15   0.00     0.21   0.01   0.00     0.00   0.00   0.00
     4   6    -0.14  -0.12   0.00    -0.01   0.21   0.00     0.00   0.00   0.00
     5   1     0.29   0.15   0.01    -0.32  -0.02   0.00    -0.35  -0.02   0.00
     6   1     0.29   0.15  -0.01    -0.32  -0.02   0.00     0.35   0.02   0.00
     7   1    -0.11  -0.31  -0.01     0.02  -0.32   0.00     0.02  -0.35   0.00
     8   1    -0.11  -0.31   0.01     0.02  -0.32   0.00    -0.02   0.35   0.00
     9   1     0.29   0.15  -0.01     0.32   0.02   0.00     0.35   0.02   0.00
    10   1     0.29   0.15   0.01     0.32   0.02   0.00    -0.35  -0.02   0.00
    11   1    -0.11  -0.31   0.01    -0.02   0.32   0.00    -0.02   0.35   0.00
    12   1    -0.11  -0.31  -0.01    -0.02   0.32   0.00     0.02  -0.35   0.00
                     10                     11                     12
                      A                      A                      A
 Frequencies --   1010.6508              1172.3555              1245.7871
 Red. masses --      4.1344                 2.0751                 1.0079
 Frc consts  --      2.4881                 1.6804                 0.9216
 IR Inten    --      0.0000                 0.0000                 0.0000
  Atom  AN      X      Y      Z        X      Y      Z        X      Y      Z
     1   6     0.02  -0.27   0.00     0.00   0.00   0.16     0.00   0.00   0.00
     2   6    -0.27  -0.02   0.00     0.00   0.00  -0.16     0.00   0.00   0.00
     3   6    -0.02   0.27   0.00     0.00   0.00   0.16     0.00   0.00   0.00
     4   6     0.27   0.02   0.00     0.00   0.00  -0.16     0.00   0.00   0.00
     5   1     0.02  -0.30   0.01    -0.02   0.33  -0.08     0.36   0.02   0.00
     6   1     0.02  -0.30  -0.01     0.02  -0.33  -0.08    -0.35  -0.02   0.00
     7   1    -0.30  -0.02   0.01    -0.33  -0.02   0.08     0.02  -0.35   0.00
     8   1    -0.30  -0.02  -0.01     0.33   0.02   0.08    -0.02   0.36   0.00
     9   1    -0.02   0.30   0.01     0.02  -0.33  -0.08    -0.36  -0.02   0.00
    10   1    -0.02   0.30  -0.01    -0.02   0.33  -0.08     0.35   0.02   0.00
    11   1     0.30   0.02   0.01     0.33   0.02   0.08    -0.02   0.35   0.00
    12   1     0.30   0.02  -0.01    -0.33  -0.02   0.08     0.02  -0.36   0.00
                     13                     14                     15
                      A                      A                      A
 Frequencies --   1248.4274              1265.6123              1265.6132
 Red. masses --      1.3711                 1.2015                 1.2015
 Frc consts  --      1.2591                 1.1339                 1.1339
 IR Inten    --      0.0000                 0.0000                 0.0000
  Atom  AN      X      Y      Z        X      Y      Z        X      Y      Z
     1   6     0.09   0.01   0.00     0.00   0.00  -0.07     0.00   0.00   0.06
     2   6    -0.01   0.09   0.00     0.00   0.00   0.06     0.00   0.00   0.07
     3   6    -0.09  -0.01   0.00     0.00   0.00   0.07     0.00   0.00  -0.06
     4   6     0.01  -0.09   0.00     0.00   0.00  -0.06     0.00   0.00  -0.07
     5   1    -0.34  -0.02   0.00     0.30  -0.11   0.02     0.35   0.13  -0.02
     6   1    -0.35  -0.02   0.00    -0.30   0.11   0.02    -0.35  -0.13  -0.02
     7   1     0.02  -0.35   0.00     0.13  -0.35  -0.02     0.11   0.30  -0.02
     8   1     0.02  -0.34   0.00    -0.13   0.35  -0.02    -0.11  -0.30  -0.02
     9   1     0.34   0.02   0.00     0.30  -0.11  -0.02     0.35   0.13   0.02
    10   1     0.35   0.02   0.00    -0.30   0.11  -0.02    -0.35  -0.13   0.02
    11   1    -0.02   0.35   0.00     0.13  -0.35   0.02     0.11   0.30   0.02
    12   1    -0.02   0.34   0.00    -0.13   0.35   0.02    -0.11  -0.30   0.02
                     16                     17                     18
                      A                      A                      A
 Frequencies --   1275.6826              1306.6408              1306.6438
 Red. masses --      1.3843                 1.5168                 1.5169
 Frc consts  --      1.3273                 1.5258                 1.5258
 IR Inten    --      0.0000                 0.1388                 0.1388
  Atom  AN      X      Y      Z        X      Y      Z        X      Y      Z
     1   6     0.09   0.01   0.00     0.12  -0.02   0.00    -0.08  -0.05   0.00
     2   6     0.01  -0.09   0.00    -0.05   0.08   0.00     0.02   0.12   0.00
     3   6    -0.09  -0.01   0.00     0.12  -0.02   0.00    -0.08  -0.05   0.00
     4   6    -0.01   0.09   0.00    -0.05   0.08   0.00     0.02   0.12   0.00
     5   1    -0.35  -0.02   0.00    -0.40  -0.05  -0.01     0.28  -0.01  -0.01
     6   1    -0.35  -0.02   0.00    -0.40  -0.05   0.01     0.28  -0.01   0.01
     7   1    -0.02   0.35   0.00    -0.01  -0.28  -0.01     0.05  -0.40   0.01
     8   1    -0.02   0.35   0.00    -0.01  -0.28   0.01     0.05  -0.40  -0.01
     9   1     0.35   0.02   0.00    -0.40  -0.05   0.01     0.28  -0.01   0.01
    10   1     0.35   0.02   0.00    -0.40  -0.05  -0.01     0.28  -0.01  -0.01
    11   1     0.02  -0.35   0.00    -0.01  -0.28   0.01     0.05  -0.40  -0.01
    12   1     0.02  -0.35   0.00    -0.01  -0.28  -0.01     0.05  -0.40   0.01
                     19                     20                     21
                      A                      A                      A
 Frequencies --   1509.8004              1512.3224              1512.3238
 Red. masses --      1.0781                 1.0872                 1.0872
 Frc consts  --      1.4479                 1.4650                 1.4650
 IR Inten    --      0.0000                 0.3179                 0.3178
  Atom  AN      X      Y      Z        X      Y      Z        X      Y      Z
     1   6     0.00   0.04   0.00     0.00  -0.06   0.00    -0.01   0.00   0.00
     2   6    -0.04   0.00   0.00     0.00  -0.01   0.00    -0.06   0.00   0.00
     3   6     0.00  -0.04   0.00     0.00  -0.06   0.00    -0.01   0.00   0.00
     4   6     0.04   0.00   0.00     0.00  -0.01   0.00    -0.06   0.00   0.00
     5   1     0.02  -0.28   0.22    -0.03   0.39  -0.31     0.00   0.01   0.00
     6   1     0.02  -0.28  -0.22    -0.03   0.39   0.31     0.00   0.01   0.00
     7   1     0.28   0.02  -0.22    -0.01   0.01   0.00     0.39   0.03  -0.31
     8   1     0.28   0.02   0.22    -0.01   0.00   0.00     0.39   0.03   0.31
     9   1    -0.02   0.28   0.22    -0.03   0.39   0.31     0.01   0.01   0.00
    10   1    -0.02   0.28  -0.22    -0.03   0.39  -0.31     0.01   0.01   0.00
    11   1    -0.28  -0.02  -0.22    -0.01   0.01   0.00     0.39   0.03   0.31
    12   1    -0.28  -0.02   0.22    -0.01   0.01   0.00     0.39   0.03  -0.31
                     22                     23                     24
                      A                      A                      A
 Frequencies --   1548.1762              3065.0828              3068.0307
 Red. masses --      1.1293                 1.0576                 1.0578
 Frc consts  --      1.5948                 5.8542                 5.8663
 IR Inten    --      0.0000                 0.0001                97.4861
  Atom  AN      X      Y      Z        X      Y      Z        X      Y      Z
     1   6     0.00   0.05   0.00     0.00   0.03   0.00     0.00   0.00   0.00
     2   6     0.05   0.00   0.00    -0.03   0.00   0.00     0.05   0.00   0.00
     3   6     0.00  -0.05   0.00     0.00  -0.03   0.00     0.00   0.00   0.00
     4   6    -0.05   0.00   0.00     0.03   0.00   0.00     0.05   0.00   0.00
     5   1     0.02  -0.27   0.22     0.01  -0.20  -0.29     0.00   0.00   0.00
     6   1     0.02  -0.27  -0.22     0.01  -0.20   0.29     0.00   0.00   0.00
     7   1    -0.27  -0.02   0.22     0.20   0.01   0.29    -0.28  -0.02  -0.41
     8   1    -0.27  -0.02  -0.22     0.20   0.01  -0.29    -0.28  -0.02   0.41
     9   1    -0.02   0.27   0.22    -0.01   0.20  -0.29     0.00   0.00   0.00
    10   1    -0.02   0.27  -0.22    -0.01   0.20   0.29     0.00   0.00   0.00
    11   1     0.27   0.02   0.22    -0.20  -0.01   0.29    -0.28  -0.02   0.41
    12   1     0.27   0.02  -0.22    -0.20  -0.01  -0.29    -0.28  -0.02  -0.41
                     25                     26                     27
                      A                      A                      A
 Frequencies --   3068.0346              3079.7124              3093.4913
 Red. masses --      1.0578                 1.0633                 1.1112
 Frc consts  --      5.8663                 5.9420                 6.2651
 IR Inten    --     97.4859                 0.0000                 0.0000
  Atom  AN      X      Y      Z        X      Y      Z        X      Y      Z
     1   6     0.00   0.05   0.00     0.00  -0.04   0.00     0.00   0.00   0.05
     2   6     0.00   0.00   0.00    -0.04   0.00   0.00     0.00   0.00  -0.05
     3   6     0.00   0.05   0.00     0.00   0.04   0.00     0.00   0.00   0.05
     4   6     0.00   0.00   0.00     0.04   0.00   0.00     0.00   0.00  -0.05
     5   1     0.02  -0.28  -0.41    -0.01   0.20   0.29     0.01  -0.21  -0.29
     6   1     0.02  -0.28   0.41    -0.01   0.20  -0.29    -0.01   0.21  -0.29
     7   1     0.00   0.00   0.00     0.20   0.01   0.29     0.21   0.01   0.29
     8   1     0.00   0.00   0.00     0.20   0.01  -0.29    -0.21  -0.01   0.29
     9   1     0.02  -0.28   0.41     0.01  -0.20   0.29    -0.01   0.21  -0.28
    10   1     0.02  -0.28  -0.41     0.01  -0.20  -0.29     0.01  -0.21  -0.29
    11   1     0.00   0.00   0.00    -0.20  -0.01   0.29    -0.21  -0.01   0.29
    12   1     0.00   0.00   0.00    -0.20  -0.01  -0.29     0.21   0.01   0.29
                     28                     29                     30
                      A                      A                      A
 Frequencies --   3113.3094              3113.3144              3133.6592
 Red. masses --      1.1089                 1.1089                 1.1077
 Frc consts  --      6.3328                 6.3328                 6.4090
 IR Inten    --      0.0000                 0.0000               115.1908
  Atom  AN      X      Y      Z        X      Y      Z        X      Y      Z
     1   6     0.00   0.00   0.00     0.00   0.00   0.07     0.00   0.00  -0.05
     2   6     0.00   0.00  -0.07     0.00   0.00   0.00     0.00   0.00  -0.05
     3   6     0.00   0.00   0.00     0.00   0.00  -0.07     0.00   0.00  -0.05
     4   6     0.00   0.00   0.07     0.00   0.00   0.00     0.00   0.00  -0.05
     5   1     0.00   0.00   0.00     0.02  -0.29  -0.40    -0.01   0.21   0.28
     6   1     0.00   0.00   0.00    -0.02   0.29  -0.40     0.01  -0.21   0.28
     7   1     0.29   0.02   0.40     0.00   0.00   0.00     0.21   0.01   0.28
     8   1    -0.29  -0.02   0.40     0.00   0.00   0.00    -0.21  -0.01   0.28
     9   1     0.00   0.00   0.00     0.02  -0.29   0.40     0.01  -0.21   0.28
    10   1     0.00   0.00   0.00    -0.02   0.29   0.40    -0.01   0.21   0.28
    11   1     0.29   0.02  -0.40     0.00   0.00   0.00    -0.21  -0.01   0.28
    12   1    -0.29  -0.02  -0.40     0.00   0.00   0.00     0.21   0.01   0.28

 -------------------
 - Thermochemistry -
 -------------------
 Temperature   298.150 Kelvin.  Pressure   1.00000 Atm.
 Atom     1 has atomic number  6 and mass  12.00000
 Atom     2 has atomic number  6 and mass  12.00000
 Atom     3 has atomic number  6 and mass  12.00000
 Atom     4 has atomic number  6 and mass  12.00000
 Atom     5 has atomic number  1 and mass   1.00783
 Atom     6 has atomic number  1 and mass   1.00783
 Atom     7 has atomic number  1 and mass   1.00783
 Atom     8 has atomic number  1 and mass   1.00783
 Atom     9 has atomic number  1 and mass   1.00783
 Atom    10 has atomic number  1 and mass   1.00783
 Atom    11 has atomic number  1 and mass   1.00783
 Atom    12 has atomic number  1 and mass   1.00783
 Molecular mass:    56.06260 amu.
 Principal axes and moments of inertia in atomic units:
                           1         2         3
     Eigenvalues --   170.33409 170.33448 295.60474
           X            0.96852   0.24894   0.00015
           Y           -0.24894   0.96852   0.00005
           Z           -0.00013  -0.00009   1.00000
 This molecule is an asymmetric top.
 Rotational symmetry number  1.
 Rotational temperatures (Kelvin)      0.50849     0.50849     0.29301
 Rotational constants (GHZ):          10.59530    10.59528     6.10525
    1 imaginary frequencies ignored.
 Zero-point vibrational energy     291462.8 (Joules/Mol)
                                   69.66127 (Kcal/Mol)
 Vibrational temperatures:   1069.24  1069.25  1077.70  1091.65  1331.22
          (Kelvin)           1331.23  1414.39  1419.28  1454.10  1686.76
                             1792.41  1796.21  1820.93  1820.94  1835.42
                             1879.96  1879.97  2172.27  2175.89  2175.90
                             2227.48  4409.97  4414.21  4414.22  4431.02
                             4450.84  4479.36  4479.37  4508.64
 
 Zero-point correction=                           0.111012 (Hartree/Particle)
 Thermal correction to Energy=                    0.114559
 Thermal correction to Enthalpy=                  0.115504
 Thermal correction to Gibbs Free Energy=         0.085324
 Sum of electronic and zero-point Energies=           -157.100824
 Sum of electronic and thermal Energies=              -157.097277
 Sum of electronic and thermal Enthalpies=            -157.096333
 Sum of electronic and thermal Free Energies=         -157.126512
 
                     E (Thermal)             CV                S
                      KCal/Mol        Cal/Mol-Kelvin    Cal/Mol-Kelvin
 Total                   71.887             12.644             63.518
 Electronic               0.000              0.000              0.000
 Translational            0.889              2.981             37.993
 Rotational               0.889              2.981             23.665
 Vibrational             70.110              6.682              1.860
                       Q            Log10(Q)             Ln(Q)
 Total Bot       0.566996D-39        -39.246420        -90.368222
 Total V=0       0.654107D+12         11.815649         27.206537
 Vib (Bot)       0.103660D-50        -50.984387       -117.395890
 Vib (V=0)       0.119586D+01          0.077682          0.178869
 Electronic      0.100000D+01          0.000000          0.000000
 Translational   0.164992D+08          7.217464         16.618824
 Rotational      0.331515D+05          4.520503         10.408844
 ***** Axes restored to original set *****
 -------------------------------------------------------------------
 Center     Atomic                   Forces (Hartrees/Bohr)
 Number     Number              X              Y              Z
 -------------------------------------------------------------------
      1        6           0.000088480    0.000077764   -0.000002929
      2        6          -0.000082203    0.000087232    0.000006653
      3        6          -0.000087824   -0.000080504   -0.000009081
      4        6           0.000079529   -0.000085627    0.000001392
      5        1          -0.000023578   -0.000022304    0.000000231
      6        1          -0.000023540   -0.000019797    0.000000749
      7        1           0.000020189   -0.000022855   -0.000001090
      8        1           0.000023437   -0.000023876   -0.000001067
      9        1           0.000025970    0.000023615    0.000002111
     10        1           0.000022091    0.000020214    0.000002184
     11        1          -0.000021402    0.000022721    0.000000364
     12        1          -0.000021149    0.000023415    0.000000482
 -------------------------------------------------------------------
 Cartesian Forces:  Max     0.000088480 RMS     0.000042292
 FormGI is forming the generalized inverse of G from B-inverse, IUseBI=4.

 GradGradGradGradGradGradGradGradGradGradGradGradGradGradGradGradGradGrad
 Berny optimization.
 Internal  Forces:  Max     0.000039713 RMS     0.000012911
 Search for a local minimum.
 Step number   1 out of a maximum of    2
 All quantities printed in internal units (Hartrees-Bohrs-Radians)
 Second derivative matrix not updated -- analytic derivatives used.
 ITU=  0
     Eigenvalues ---   -0.00083   0.01165   0.01165   0.03859   0.04116
     Eigenvalues ---    0.04229   0.04315   0.04315   0.04580   0.04864
     Eigenvalues ---    0.05163   0.05176   0.05176   0.06320   0.07333
     Eigenvalues ---    0.08781   0.08781   0.20485   0.20485   0.24132
     Eigenvalues ---    0.26517   0.27233   0.33186   0.33473   0.33473
     Eigenvalues ---    0.33778   0.34170   0.34180   0.34181   0.34506
 Eigenvalue     1 is  -8.26D-04 should be greater than     0.000000 Eigenvector:
                          D35       D24       D17       D8        D36
   1                   -0.18278   0.18278   0.18277  -0.18277  -0.18276
                          D18       D5        D27       D14       D9
   1                    0.18276  -0.18276   0.18276   0.18276  -0.18276
 Angle between quadratic step and forces=  65.10 degrees.
 Linear search not attempted -- first point.
 Iteration  1 RMS(Cart)=  0.00025164 RMS(Int)=  0.00000005
 Iteration  2 RMS(Cart)=  0.00000005 RMS(Int)=  0.00000001
 Variable       Old X    -DE/DX   Delta X   Delta X   Delta X     New X
                                 (Linear)    (Quad)   (Total)
    R1        2.94277  -0.00004   0.00000  -0.00020  -0.00020   2.94257
    R2        2.94276  -0.00004   0.00000  -0.00019  -0.00019   2.94257
    R3        2.06867   0.00002   0.00000   0.00007   0.00007   2.06874
    R4        2.06867   0.00002   0.00000   0.00007   0.00007   2.06874
    R5        2.94277  -0.00004   0.00000  -0.00020  -0.00020   2.94257
    R6        2.06867   0.00002   0.00000   0.00007   0.00007   2.06874
    R7        2.06867   0.00002   0.00000   0.00007   0.00007   2.06874
    R8        2.94277  -0.00004   0.00000  -0.00020  -0.00020   2.94257
    R9        2.06867   0.00002   0.00000   0.00007   0.00007   2.06874
   R10        2.06867   0.00002   0.00000   0.00008   0.00008   2.06874
   R11        2.06867   0.00002   0.00000   0.00007   0.00007   2.06874
   R12        2.06867   0.00002   0.00000   0.00007   0.00007   2.06874
    A1        1.57080   0.00000   0.00000   0.00000   0.00000   1.57080
    A2        2.00045   0.00001   0.00000   0.00015   0.00015   2.00060
    A3        2.00034   0.00001   0.00000   0.00010   0.00010   2.00043
    A4        2.00044   0.00000   0.00000   0.00014   0.00014   2.00058
    A5        2.00037   0.00000   0.00000   0.00004   0.00004   2.00041
    A6        1.88187  -0.00001   0.00000  -0.00034  -0.00034   1.88153
    A7        1.57079   0.00000   0.00000   0.00000   0.00000   1.57080
    A8        2.00038   0.00000   0.00000   0.00003   0.00003   2.00041
    A9        2.00041   0.00000   0.00000   0.00017   0.00017   2.00058
   A10        2.00036   0.00000   0.00000   0.00007   0.00007   2.00043
   A11        2.00043   0.00001   0.00000   0.00017   0.00017   2.00060
   A12        1.88187  -0.00001   0.00000  -0.00035  -0.00035   1.88153
   A13        1.57080   0.00000   0.00000   0.00000   0.00000   1.57080
   A14        2.00041   0.00001   0.00000   0.00017   0.00017   2.00058
   A15        2.00039   0.00000   0.00000   0.00002   0.00002   2.00041
   A16        2.00039   0.00001   0.00000   0.00021   0.00021   2.00060
   A17        2.00039   0.00000   0.00000   0.00004   0.00004   2.00043
   A18        1.88188  -0.00002   0.00000  -0.00035  -0.00035   1.88153
   A19        1.57080   0.00000   0.00000   0.00000   0.00000   1.57080
   A20        2.00034   0.00001   0.00000   0.00009   0.00009   2.00043
   A21        2.00045   0.00000   0.00000   0.00015   0.00015   2.00060
   A22        2.00033   0.00000   0.00000   0.00008   0.00008   2.00041
   A23        2.00047   0.00000   0.00000   0.00011   0.00011   2.00058
   A24        1.88187  -0.00001   0.00000  -0.00034  -0.00034   1.88153
    D1        0.00030   0.00000   0.00000   0.00027   0.00027   0.00057
    D2       -2.04635  -0.00001   0.00000   0.00018   0.00018  -2.04617
    D3        2.04704   0.00001   0.00000   0.00050   0.00050   2.04753
    D4        2.04706   0.00001   0.00000   0.00046   0.00046   2.04752
    D5        0.00041   0.00000   0.00000   0.00037   0.00037   0.00078
    D6       -2.18939   0.00001   0.00000   0.00069   0.00069  -2.18870
    D7       -2.04635  -0.00001   0.00000   0.00020   0.00020  -2.04615
    D8        2.19018  -0.00001   0.00000   0.00011   0.00011   2.19030
    D9        0.00038   0.00000   0.00000   0.00043   0.00043   0.00081
   D10       -0.00030   0.00000   0.00000  -0.00027  -0.00027  -0.00057
   D11        2.04631   0.00001   0.00000  -0.00016  -0.00016   2.04615
   D12       -2.04709  -0.00001   0.00000  -0.00043  -0.00043  -2.04752
   D13       -2.04706  -0.00001   0.00000  -0.00047  -0.00047  -2.04753
   D14       -0.00045   0.00000   0.00000  -0.00036  -0.00036  -0.00081
   D15        2.18933  -0.00001   0.00000  -0.00063  -0.00063   2.18870
   D16        2.04632   0.00001   0.00000  -0.00015  -0.00015   2.04617
   D17       -2.19025   0.00001   0.00000  -0.00004  -0.00004  -2.19030
   D18       -0.00047   0.00000   0.00000  -0.00031  -0.00031  -0.00078
   D19       -0.00030   0.00000   0.00000  -0.00027  -0.00027  -0.00057
   D20       -2.04699  -0.00001   0.00000  -0.00054  -0.00054  -2.04753
   D21        2.04639   0.00001   0.00000  -0.00022  -0.00022   2.04617
   D22        2.04637   0.00001   0.00000  -0.00022  -0.00022   2.04615
   D23       -0.00032   0.00000   0.00000  -0.00049  -0.00049  -0.00081
   D24       -2.19013   0.00001   0.00000  -0.00017  -0.00017  -2.19030
   D25       -2.04702  -0.00001   0.00000  -0.00050  -0.00050  -2.04752
   D26        2.18947  -0.00001   0.00000  -0.00077  -0.00077   2.18870
   D27       -0.00033   0.00000   0.00000  -0.00045  -0.00045  -0.00078
   D28        0.00030   0.00000   0.00000   0.00027   0.00027   0.00057
   D29       -2.04632  -0.00001   0.00000   0.00015   0.00015  -2.04617
   D30        2.04708   0.00001   0.00000   0.00046   0.00046   2.04753
   D31        2.04701   0.00001   0.00000   0.00051   0.00051   2.04752
   D32        0.00039   0.00000   0.00000   0.00039   0.00039   0.00078
   D33       -2.18940   0.00001   0.00000   0.00070   0.00070  -2.18870
   D34       -2.04639   0.00000   0.00000   0.00024   0.00024  -2.04615
   D35        2.19018  -0.00001   0.00000   0.00012   0.00012   2.19030
   D36        0.00039   0.00000   0.00000   0.00043   0.00043   0.00081
         Item               Value     Threshold  Converged?
 Maximum Force            0.000040     0.000450     YES
 RMS     Force            0.000013     0.000300     YES
 Maximum Displacement     0.000692     0.001800     YES
 RMS     Displacement     0.000252     0.001200     YES
 Predicted change in Energy=-6.361717D-08
 Optimization completed.
    -- Stationary point found.
                           ----------------------------
                           !   Optimized Parameters   !
                           ! (Angstroms and Degrees)  !
 --------------------------                            --------------------------
 ! Name  Definition              Value          Derivative Info.                !
 --------------------------------------------------------------------------------
 ! R1    R(1,2)                  1.5572         -DE/DX =    0.0                 !
 ! R2    R(1,4)                  1.5572         -DE/DX =    0.0                 !
 ! R3    R(1,5)                  1.0947         -DE/DX =    0.0                 !
 ! R4    R(1,6)                  1.0947         -DE/DX =    0.0                 !
 ! R5    R(2,3)                  1.5572         -DE/DX =    0.0                 !
 ! R6    R(2,7)                  1.0947         -DE/DX =    0.0                 !
 ! R7    R(2,8)                  1.0947         -DE/DX =    0.0                 !
 ! R8    R(3,4)                  1.5572         -DE/DX =    0.0                 !
 ! R9    R(3,9)                  1.0947         -DE/DX =    0.0                 !
 ! R10   R(3,10)                 1.0947         -DE/DX =    0.0                 !
 ! R11   R(4,11)                 1.0947         -DE/DX =    0.0                 !
 ! R12   R(4,12)                 1.0947         -DE/DX =    0.0                 !
 ! A1    A(2,1,4)               90.0001         -DE/DX =    0.0                 !
 ! A2    A(2,1,5)              114.6172         -DE/DX =    0.0                 !
 ! A3    A(2,1,6)              114.6108         -DE/DX =    0.0                 !
 ! A4    A(4,1,5)              114.6168         -DE/DX =    0.0                 !
 ! A5    A(4,1,6)              114.6129         -DE/DX =    0.0                 !
 ! A6    A(5,1,6)              107.823          -DE/DX =    0.0                 !
 ! A7    A(1,2,3)               89.9998         -DE/DX =    0.0                 !
 ! A8    A(1,2,7)              114.6136         -DE/DX =    0.0                 !
 ! A9    A(1,2,8)              114.6153         -DE/DX =    0.0                 !
 ! A10   A(3,2,7)              114.6122         -DE/DX =    0.0                 !
 ! A11   A(3,2,8)              114.6163         -DE/DX =    0.0                 !
 ! A12   A(7,2,8)              107.8235         -DE/DX =    0.0                 !
 ! A13   A(2,3,4)               90.0001         -DE/DX =    0.0                 !
 ! A14   A(2,3,9)              114.6149         -DE/DX =    0.0                 !
 ! A15   A(2,3,10)             114.6141         -DE/DX =    0.0                 !
 ! A16   A(4,3,9)              114.6139         -DE/DX =    0.0                 !
 ! A17   A(4,3,10)             114.614          -DE/DX =    0.0                 !
 ! A18   A(9,3,10)             107.8237         -DE/DX =    0.0                 !
 ! A19   A(1,4,3)               90.0001         -DE/DX =    0.0                 !
 ! A20   A(1,4,11)             114.6111         -DE/DX =    0.0                 !
 ! A21   A(1,4,12)             114.6175         -DE/DX =    0.0                 !
 ! A22   A(3,4,11)             114.6107         -DE/DX =    0.0                 !
 ! A23   A(3,4,12)             114.6184         -DE/DX =    0.0                 !
 ! A24   A(11,4,12)            107.823          -DE/DX =    0.0                 !
 ! D1    D(4,1,2,3)              0.0172         -DE/DX =    0.0                 !
 ! D2    D(4,1,2,7)           -117.2472         -DE/DX =    0.0                 !
 ! D3    D(4,1,2,8)            117.2866         -DE/DX =    0.0                 !
 ! D4    D(5,1,2,3)            117.2877         -DE/DX =    0.0                 !
 ! D5    D(5,1,2,7)              0.0234         -DE/DX =    0.0                 !
 ! D6    D(5,1,2,8)           -125.4428         -DE/DX =    0.0                 !
 ! D7    D(6,1,2,3)           -117.2474         -DE/DX =    0.0                 !
 ! D8    D(6,1,2,7)            125.4882         -DE/DX =    0.0                 !
 ! D9    D(6,1,2,8)              0.022          -DE/DX =    0.0                 !
 ! D10   D(2,1,4,3)             -0.0172         -DE/DX =    0.0                 !
 ! D11   D(2,1,4,11)           117.245          -DE/DX =    0.0                 !
 ! D12   D(2,1,4,12)          -117.2897         -DE/DX =    0.0                 !
 ! D13   D(5,1,4,3)           -117.2881         -DE/DX =    0.0                 !
 ! D14   D(5,1,4,11)            -0.0258         -DE/DX =    0.0                 !
 ! D15   D(5,1,4,12)           125.4395         -DE/DX =    0.0                 !
 ! D16   D(6,1,4,3)            117.2456         -DE/DX =    0.0                 !
 ! D17   D(6,1,4,11)          -125.4922         -DE/DX =    0.0                 !
 ! D18   D(6,1,4,12)            -0.0269         -DE/DX =    0.0                 !
 ! D19   D(1,2,3,4)             -0.0172         -DE/DX =    0.0                 !
 ! D20   D(1,2,3,9)           -117.2839         -DE/DX =    0.0                 !
 ! D21   D(1,2,3,10)           117.2495         -DE/DX =    0.0                 !
 ! D22   D(7,2,3,4)            117.2484         -DE/DX =    0.0                 !
 ! D23   D(7,2,3,9)             -0.0183         -DE/DX =    0.0                 !
 ! D24   D(7,2,3,10)          -125.4849         -DE/DX =    0.0                 !
 ! D25   D(8,2,3,4)           -117.2857         -DE/DX =    0.0                 !
 ! D26   D(8,2,3,9)            125.4476         -DE/DX =    0.0                 !
 ! D27   D(8,2,3,10)            -0.019          -DE/DX =    0.0                 !
 ! D28   D(2,3,4,1)              0.0172         -DE/DX =    0.0                 !
 ! D29   D(2,3,4,11)          -117.2453         -DE/DX =    0.0                 !
 ! D30   D(2,3,4,12)           117.2888         -DE/DX =    0.0                 !
 ! D31   D(9,3,4,1)            117.2848         -DE/DX =    0.0                 !
 ! D32   D(9,3,4,11)             0.0222         -DE/DX =    0.0                 !
 ! D33   D(9,3,4,12)          -125.4436         -DE/DX =    0.0                 !
 ! D34   D(10,3,4,1)          -117.2495         -DE/DX =    0.0                 !
 ! D35   D(10,3,4,11)          125.4879         -DE/DX =    0.0                 !
 ! D36   D(10,3,4,12)            0.0221         -DE/DX =    0.0                 !
 --------------------------------------------------------------------------------
 GradGradGradGradGradGradGradGradGradGradGradGradGradGradGradGradGradGrad


 ----------------------------------------------------------------------

 Electric dipole moment (input orientation):
 (Debye = 10**-18 statcoulomb cm , SI units = C m)
                  (au)            (Debye)         (10**-30 SI)
   Tot        0.000000D+00      0.000000D+00      0.000000D+00
   x          0.000000D+00      0.000000D+00      0.000000D+00
   y          0.000000D+00      0.000000D+00      0.000000D+00
   z          0.000000D+00      0.000000D+00      0.000000D+00

 Dipole polarizability, Alpha (input orientation).
 (esu units = cm**3 , SI units = C**2 m**2 J**-1)
 Alpha(0;0):
               (au)            (10**-24 esu)      (10**-40 SI)
   iso        0.398450D+02      0.590442D+01      0.656955D+01
   aniso      0.265133D+01      0.392887D+00      0.437146D+00
   xx         0.407288D+02      0.603538D+01      0.671527D+01
   yx        -0.393370D-04     -0.582914D-05     -0.648580D-05
   yy         0.407288D+02      0.603538D+01      0.671527D+01
   zx         0.207592D-03      0.307620D-04      0.342273D-04
   zy        -0.454649D-03     -0.673720D-04     -0.749615D-04
   zz         0.380774D+02      0.564250D+01      0.627812D+01

 ----------------------------------------------------------------------

 Dipole orientation:
     6         -1.14805402         -0.21767242         -0.01167528
     6          1.79443419         -0.21738825          0.02919104
     6          1.79391129         -3.15959336          0.08665337
     6         -1.14858293         -3.15985397          0.04667021
     1         -2.03274108          0.67691950          1.63040584
     1         -1.98610437          0.61049896         -1.71202818
     1          2.63287952          0.67672055          1.69561497
     1          2.67936376          0.61156928         -1.64685399
     1          2.63257216         -3.98834570          1.78642293
     1          2.67799829         -4.05360628         -1.55606130
     1         -2.03287327         -3.98812546          1.72339381
     1         -1.98770184         -4.05462758         -1.61905907

 Electric dipole moment (dipole orientation):
 (Debye = 10**-18 statcoulomb cm , SI units = C m)
                  (au)            (Debye)         (10**-30 SI)
   Tot        0.000000D+00      0.000000D+00      0.000000D+00
   x          0.000000D+00      0.000000D+00      0.000000D+00
   y          0.000000D+00      0.000000D+00      0.000000D+00
   z          0.000000D+00      0.000000D+00      0.000000D+00

 Dipole polarizability, Alpha (dipole orientation).
 (esu units = cm**3 , SI units = C**2 m**2 J**-1)
 Alpha(0;0):
               (au)            (10**-24 esu)      (10**-40 SI)
   iso        0.398450D+02      0.590442D+01      0.656955D+01
   aniso      0.265133D+01      0.392887D+00      0.437146D+00
   xx         0.407283D+02      0.603531D+01      0.671518D+01
   yx         0.757474D-03      0.112246D-03      0.124891D-03
   yy         0.407278D+02      0.603523D+01      0.671510D+01
   zx         0.364096D-01      0.539534D-02      0.600313D-02
   zy        -0.522609D-01     -0.774427D-02     -0.861666D-02
   zz         0.380790D+02      0.564272D+01      0.627838D+01

 ----------------------------------------------------------------------
 1|1|UNPC-LAPTOP|Freq|RB3LYP|6-31G(d)|C4H8|25012|20-Apr-2026|0||#N Geom
 =AllCheck Guess=TCheck SCRF=Check GenChk RB3LYP/6-31G(d) Freq||Title C
 ard Required||0,1|C,-0.6075669463,0.115126554,0.0000348776|C,0.9496809
 226,0.1151886355,-0.0000758334|C,0.9496140921,1.67243346,-0.0000472822
 |C,-0.6076304982,1.6723680505,-0.0004040727|H,-1.0636098643,-0.3411332
 94,-0.8843885596|H,-1.0633733049,-0.3405661162,0.8848725724|H,1.405571
 2958,-0.3406869601,-0.8847749968|H,1.4057270119,-0.3407916748,0.884490
 3754|H,1.4057391864,2.1284274281,-0.8845659024|H,1.4053349105,2.128380
 4644,0.884700945|H,-1.0633333495,2.127992361,-0.8853316838|H,-1.063872
 2561,2.1286026115,0.8839295603||Version=EM64W-G16RevA.03|State=1-A|HF=
 -157.2118362|RMSD=1.889e-009|RMSF=4.229e-005|ZeroPoint=0.1110123|Therm
 al=0.1145595|Dipole=0.,0.,-0.0000042|DipoleDeriv=0.0679338,0.0443997,0
 .0000621,0.0443967,0.0679426,0.0000843,-0.0000158,0.0000094,0.1667242,
 0.067936,-0.0443966,0.000061,-0.0443984,0.0679337,-0.0000616,-0.000010
 3,0.0000122,0.1667246,0.0679345,0.0443982,-0.0000739,0.0443976,0.06793
 92,-0.0000473,-0.0000039,0.0000207,0.1667239,0.0679391,-0.0443991,-0.0
 000798,-0.0444007,0.0679367,0.0000825,-0.0000016,0.0000025,0.1667244,-
 0.033995,-0.0495403,-0.059761,-0.0495452,-0.034032,-0.0597816,-0.09460
 32,-0.0946297,-0.0832904,-0.0339338,-0.0494516,0.0597578,-0.0494457,-0
 .0339151,0.0597478,0.0946111,0.0945992,-0.0834341,-0.0339501,0.0494715
 ,0.0597561,0.0494729,-0.0339472,-0.0597521,0.0946061,-0.094603,-0.0833
 846,-0.0339928,0.0495182,-0.0597695,0.0495198,-0.0339831,0.0597666,-0.
 0946206,0.0946106,-0.0833397,-0.0340089,-0.0495309,0.0597706,-0.049523
 5,-0.0339859,0.059757,0.0946233,0.09461,-0.0833248,-0.0339184,-0.04945
 99,-0.0597462,-0.0494664,-0.033958,-0.0597691,-0.0945901,-0.0946175,-0
 .0833985,-0.0339174,0.049434,-0.0597523,0.0494339,-0.0339042,0.0597471
 ,-0.0946115,0.0946007,-0.0834662,-0.034027,0.0495568,0.0597751,0.04955
 91,-0.0340267,-0.0597737,0.0946166,-0.0946149,-0.0832587|Polar=40.7287
 723,-0.0000393,40.7287876,0.0002076,-0.0004546,38.077446|Quadrupole=-0
 .362242,-0.362213,0.724455,-0.0000033,-0.0000851,0.0001401|PG=C01 [X(C
 4H8)]|NImag=1||0.46142420,0.10391691,0.46145185,-0.00000163,0.00004184
 ,0.60733630,-0.17228402,0.00791486,0.00000577,0.46143972,-0.00791444,-
 0.03954010,-0.00000929,-0.10391698,0.46143071,0.00000482,-0.00000326,-
 0.08459316,0.00001123,-0.00000775,0.60733961,-0.04222055,-0.03165023,-
 0.00000534,-0.03953973,0.00791473,-0.00000008,0.46142851,-0.03165045,-
 0.04222652,-0.00000112,-0.00791462,-0.17228805,-0.00000141,0.10391705,
 0.46144538,0.00000441,0.00000824,0.01248013,0.00000602,0.00000118,-0.0
 8459337,-0.00002982,0.00001878,0.60734147,-0.03953966,-0.00791490,0.00
 000230,-0.04222645,0.03165014,-0.00001259,-0.17228802,0.00791458,-0.00
 001828,0.46144524,0.00791466,-0.17229210,0.00002422,0.03165017,-0.0422
 2026,0.00001298,-0.00791489,-0.03953996,-0.00000543,-0.10391624,0.4614
 3433,0.00000583,0.00002404,-0.08459326,-0.00000409,0.00000408,0.012479
 99,-0.00001982,-0.00000904,-0.08459326,-0.00002542,0.00003336,0.607334
 98,-0.09258783,-0.04426654,-0.08849783,-0.01006331,-0.00999052,-0.0262
 5386,-0.00197604,-0.00072760,0.00107191,0.00091424,0.00115796,0.006325
 56,0.09768913,-0.04426394,-0.09263233,-0.08853580,0.00115026,0.0009089
 9,0.00631668,-0.00073082,-0.00197250,0.00107230,-0.00997768,-0.0100653
 6,-0.02624186,0.04879781,0.09773700,-0.08791434,-0.08794821,-0.2287879
 4,0.00178695,0.00173799,0.00201349,0.00048644,0.00048502,-0.00046872,0
 .00173616,0.00178828,0.00201604,0.09558436,0.09562092,0.24260306,-0.09
 253835,-0.04419424,0.08848993,-0.01006561,-0.00997407,0.02626795,-0.00
 197272,-0.00072550,-0.00107170,0.00091484,0.00115809,-0.00632723,0.006
 98122,0.00639242,-0.01146381,0.09764127,-0.04419204,-0.09251943,0.0884
 6020,0.00115192,0.00090672,-0.00631686,-0.00072843,-0.00196916,-0.0010
 7155,-0.00997160,-0.01005512,0.02625704,0.00639690,0.00698070,-0.01146
 926,0.04870951,0.09761582,0.08790607,0.08787104,-0.22894693,-0.0017837
 7,-0.00173457,0.00201224,-0.00048449,-0.00048279,-0.00047075,-0.001729
 76,-0.00177910,0.00200260,0.01145241,0.01144909,-0.02192005,-0.0955773
 7,-0.09554159,0.24277563,-0.01005943,0.00997301,0.02625304,-0.09255899
 ,0.04421854,0.08848840,0.00090810,-0.00115251,-0.00631713,-0.00196901,
 0.00072852,-0.00107159,0.00271481,-0.00084878,-0.00015965,-0.00456476,
 0.00173225,-0.00006523,0.09765818,-0.00115943,0.00091503,0.00632685,0.
 04422085,-0.09255297,-0.08849137,0.00997989,-0.01006586,-0.02626417,0.
 00072542,-0.00197291,0.00107158,0.00084784,0.00121075,-0.00002972,-0.0
 0173254,-0.00018760,0.00019699,-0.04873892,0.09765588,-0.00178166,0.00
 173223,0.00200757,0.08789915,-0.08790751,-0.22889508,-0.00173572,0.001
 78442,0.00201229,-0.00048331,0.00048486,-0.00047108,0.00015921,-0.0000
 2951,0.00151224,-0.00006476,-0.00019656,0.00074881,-0.09557139,0.09557
 841,0.24271913,-0.01006124,0.00997629,-0.02624583,-0.09258917,0.044237
 22,-0.08850592,0.00090749,-0.00114968,0.00631663,-0.00197259,0.0007307
 7,0.00107227,-0.00456154,0.00173135,0.00006496,0.00271457,-0.00084836,
 0.00015956,0.00698059,-0.00639428,0.01145620,0.09769159,-0.00115664,0.
 00091405,-0.00632564,0.04423980,-0.09257535,0.08849828,0.00998465,-0.0
 1006277,0.02625759,0.00072759,-0.00197589,-0.00107193,-0.00173139,-0.0
 0018789,-0.00019652,0.00084814,0.00121101,0.00002941,-0.00639513,0.006
 98126,-0.01145603,-0.04876810,0.09767626,0.00178561,-0.00173355,0.0020
 1085,-0.08791837,0.08791496,-0.22884278,0.00173686,-0.00178638,0.00201
 365,0.00048451,-0.00048601,-0.00046837,0.00006518,0.00019653,0.0007475
 9,-0.00015898,0.00002975,0.00151260,-0.01146203,0.01146024,-0.02191973
 ,0.09558936,-0.09558548,0.24266188,-0.00197581,-0.00072745,-0.00107239
 ,0.00091563,0.00115691,-0.00632596,-0.09260291,-0.04424913,0.08852268,
 -0.01006997,-0.00998304,0.02625611,-0.00013029,-0.00083625,0.00008928,
 -0.00000332,-0.00053116,-0.00001495,0.00121092,-0.00084815,0.00002943,
 -0.00018788,0.00173148,-0.00019680,0.09770945,-0.00073048,-0.00197221,
 -0.00107235,-0.00998084,-0.01006011,0.02624541,-0.04424687,-0.09257949
 ,0.08848975,0.00115073,0.00090728,-0.00631578,-0.00083626,-0.00012920,
 0.00008885,-0.00053114,-0.00000345,-0.00001511,0.00084845,0.00271458,-
 0.00015953,-0.00173141,-0.00456186,-0.00006507,0.04877818,0.09768068,-
 0.00048620,-0.00048450,-0.00046854,-0.00173306,-0.00178447,0.00200801,
 0.08794031,0.08790240,-0.22882381,-0.00178923,-0.00173816,0.00201828,-
 0.00008904,-0.00008888,0.00004390,-0.00001557,-0.00001573,-0.00001958,
 0.00002965,0.00015881,0.00151254,0.00019645,-0.00006462,0.00074771,-0.
 09561156,-0.09557241,0.24264075,-0.00197294,-0.00072557,0.00107119,0.0
 0091351,0.00115915,0.00632674,-0.09252353,-0.04421147,-0.08846622,-0.0
 1005911,-0.00998165,-0.02626591,-0.00000341,-0.00053141,0.00001578,-0.
 00013037,-0.00083544,-0.00008873,-0.00018762,0.00173249,0.00019669,0.0
 0121084,-0.00084785,-0.00002972,0.00698120,0.00639711,0.01146483,0.097
 62133,-0.00072878,-0.00196945,0.00107156,-0.00996848,-0.01006074,-0.02
 625361,-0.04420897,-0.09257018,-0.08850627,0.00115146,0.00090839,0.006
 31759,-0.00053142,-0.00000350,0.00001570,-0.00083544,-0.00012926,-0.00
 008857,-0.00173227,-0.00456441,0.00006516,0.00084875,0.00271478,0.0001
 5970,0.00639244,0.00698066,0.01146132,0.04872875,0.09767058,0.00048469
 ,0.00048327,-0.00047092,0.00173269,0.00178281,0.00201051,-0.08788146,-
 0.08791692,-0.22891607,0.00178148,0.00173434,0.00200752,0.00001516,0.0
 0001508,-0.00001956,0.00008897,0.00008853,0.00004418,-0.00019663,0.000
 06535,0.00074869,-0.00002963,-0.00015938,0.00151228,-0.01145138,-0.011
 45702,-0.02191954,0.09555168,0.09559032,0.24274195,0.00090688,-0.00115
 092,0.00631727,-0.00196939,0.00072862,0.00107155,-0.01005807,0.0099662
 5,-0.02625871,-0.09251969,0.04417428,-0.08846977,0.00121094,0.00084839
 ,-0.00002999,-0.00018760,-0.00173233,0.00019698,-0.00012928,0.00083543
 ,-0.00008866,-0.00000345,0.00053119,0.00001563,0.00271454,-0.00084868,
 0.00015960,-0.00456473,0.00173239,0.00006403,0.09761921,0.00997488,-0.
 01006011,0.02627074,0.00072549,-0.00197262,-0.00107130,-0.00115788,0.0
 0091330,-0.00632652,0.04417677,-0.09250253,0.08845961,-0.00084823,0.00
 271457,-0.00015927,0.00173257,-0.00456504,-0.00006375,0.00083541,-0.00
 013037,0.00008893,0.00053117,-0.00000334,-0.00001562,0.00084777,0.0012
 1101,0.00002975,-0.00173234,-0.00018761,-0.00019701,-0.04869047,0.0976
 0147,0.00173251,-0.00178094,0.00200698,0.00048268,-0.00048418,-0.00047
 041,0.00178022,-0.00172941,0.00200463,-0.08788149,0.08787593,-0.228979
 75,-0.00002925,0.00015937,0.00151250,-0.00019733,-0.00006411,0.0007489
 4,0.00008838,-0.00008871,0.00004418,0.00001499,-0.00001499,-0.00001958
 ,-0.00015881,0.00002927,0.00151271,0.00006428,0.00019708,0.00074882,0.
 09555211,-0.09554563,0.24281104,0.00090875,-0.00115121,-0.00631649,-0.
 00197222,0.00073071,-0.00107229,-0.01006254,0.00998306,0.02624021,-0.0
 9262982,0.04428136,0.08852406,-0.00018792,-0.00173135,-0.00019612,0.00
 121082,0.00084879,0.00002929,-0.00000352,0.00053139,-0.00001518,-0.000
 12920,0.00083625,0.00008875,-0.00456157,0.00173121,-0.00006618,0.00271
 483,-0.00084843,-0.00015960,0.00698063,-0.00639515,-0.01144829,0.09773
 175,0.00998976,-0.01006869,-0.02625122,0.00072757,-0.00197621,0.001072
 22,-0.00115821,0.00091581,0.00632609,0.04428371,-0.09262588,-0.0885286
 8,0.00173144,-0.00456122,0.00006621,-0.00084779,0.00271483,0.00015896,
 0.00053141,-0.00000338,0.00001512,0.00083627,-0.00013028,-0.00008908,-
 0.00173161,-0.00018789,0.00019649,0.00084823,0.00121074,-0.00002937,-0
 .00639414,0.00698127,0.01144632,-0.04881663,0.09773090,-0.00174010,0.0
 0178979,0.00201892,-0.00048519,0.00048673,-0.00046906,-0.00178708,0.00
 173646,0.00201380,0.08793563,-0.08794526,-0.22875369,0.00019619,0.0000
 6609,0.00074746,0.00002989,-0.00015986,0.00151231,-0.00001582,0.000015
 75,-0.00001957,-0.00008904,0.00008930,0.00004389,-0.00006564,-0.000196
 02,0.00074759,0.00015939,-0.00003000,0.00151214,0.01146996,-0.01146992
 ,-0.02192007,-0.09560817,0.09561694,0.24256628||-0.00008848,-0.0000777
 6,0.00000293,0.00008220,-0.00008723,-0.00000665,0.00008782,0.00008050,
 0.00000908,-0.00007953,0.00008563,-0.00000139,0.00002358,0.00002230,-0
 .00000023,0.00002354,0.00001980,-0.00000075,-0.00002019,0.00002285,0.0
 0000109,-0.00002344,0.00002388,0.00000107,-0.00002597,-0.00002361,-0.0
 0000211,-0.00002209,-0.00002021,-0.00000218,0.00002140,-0.00002272,-0.
 00000036,0.00002115,-0.00002342,-0.00000048|||@


 THE TRULY SUCCESSFUL PERFORMANCE OF RESEARCHES IN
 INORGANIC CHEMISTRY IS POSSIBLE ONLY TO ONE WHO IS NOT
 ONLY A THEORETICAL CHEMIST, BUT ALSO AN ACCOMPLISHED
 ANALYST AND, MOREOVER, NOT MERELY A PRACTICALLY TRAINED,
 MECHANICAL WORKER, BUT A THINKING CREATIVE ARTIST.
   --  CLEMENS WINKLER, BER. 33, 1697(1900)
 Job cpu time:       0 days  0 hours  5 minutes 16.0 seconds.
 Elapsed time:       0 days  0 hours  5 minutes 13.2 seconds.
 File lengths (MBytes):  RWF=     12 Int=      0 D2E=      0 Chk=      2 Scr=      1
 Normal termination of Gaussian 16 at Mon Apr 20 13:13:52 2026.
