 Entering Link 1 = C:\G16W\l1.exe PID=     10044.
  
 Copyright (c) 1988-2017, Gaussian, Inc.  All Rights Reserved.
  
 This is part of the Gaussian(R) 16 program.  It is based on
 the Gaussian(R) 09 system (copyright 2009, Gaussian, Inc.),
 the Gaussian(R) 03 system (copyright 2003, Gaussian, Inc.),
 the Gaussian(R) 98 system (copyright 1998, Gaussian, Inc.),
 the Gaussian(R) 94 system (copyright 1995, Gaussian, Inc.),
 the Gaussian 92(TM) system (copyright 1992, Gaussian, Inc.),
 the Gaussian 90(TM) system (copyright 1990, Gaussian, Inc.),
 the Gaussian 88(TM) system (copyright 1988, Gaussian, Inc.),
 the Gaussian 86(TM) system (copyright 1986, Carnegie Mellon
 University), and the Gaussian 82(TM) system (copyright 1983,
 Carnegie Mellon University). Gaussian is a federally registered
 trademark of Gaussian, Inc.
  
 This software contains proprietary and confidential information,
 including trade secrets, belonging to Gaussian, Inc.
  
 This software is provided under written license and may be
 used, copied, transmitted, or stored only in accord with that
 written license.
  
 The following legend is applicable only to US Government
 contracts under FAR:
  
                    RESTRICTED RIGHTS LEGEND
  
 Use, reproduction and disclosure by the US Government is
 subject to restrictions as set forth in subparagraphs (a)
 and (c) of the Commercial Computer Software - Restricted
 Rights clause in FAR 52.227-19.
  
 Gaussian, Inc.
 340 Quinnipiac St., Bldg. 40, Wallingford CT 06492
  
  
 ---------------------------------------------------------------
 Warning -- This program may not be used in any manner that
 competes with the business of Gaussian, Inc. or will provide
 assistance to any competitor of Gaussian, Inc.  The licensee
 of this program is prohibited from giving any competitor of
 Gaussian, Inc. access to this program.  By using this program,
 the user acknowledges that Gaussian, Inc. is engaged in the
 business of creating and licensing software in the field of
 computational chemistry and represents and warrants to the
 licensee that it is not a competitor of Gaussian, Inc. and that
 it will not use this program in any manner prohibited above.
 ---------------------------------------------------------------
  

 Cite this work as:
 Gaussian 16, Revision B.01,
 M. J. Frisch, G. W. Trucks, H. B. Schlegel, G. E. Scuseria, 
 M. A. Robb, J. R. Cheeseman, G. Scalmani, V. Barone, 
 G. A. Petersson, H. Nakatsuji, X. Li, M. Caricato, A. V. Marenich, 
 J. Bloino, B. G. Janesko, R. Gomperts, B. Mennucci, H. P. Hratchian, 
 J. V. Ortiz, A. F. Izmaylov, J. L. Sonnenberg, D. Williams-Young, 
 F. Ding, F. Lipparini, F. Egidi, J. Goings, B. Peng, A. Petrone, 
 T. Henderson, D. Ranasinghe, V. G. Zakrzewski, J. Gao, N. Rega, 
 G. Zheng, W. Liang, M. Hada, M. Ehara, K. Toyota, R. Fukuda, 
 J. Hasegawa, M. Ishida, T. Nakajima, Y. Honda, O. Kitao, H. Nakai, 
 T. Vreven, K. Throssell, J. A. Montgomery, Jr., J. E. Peralta, 
 F. Ogliaro, M. J. Bearpark, J. J. Heyd, E. N. Brothers, K. N. Kudin, 
 V. N. Staroverov, T. A. Keith, R. Kobayashi, J. Normand, 
 K. Raghavachari, A. P. Rendell, J. C. Burant, S. S. Iyengar, 
 J. Tomasi, M. Cossi, J. M. Millam, M. Klene, C. Adamo, R. Cammi, 
 J. W. Ochterski, R. L. Martin, K. Morokuma, O. Farkas, 
 J. B. Foresman, and D. J. Fox, Gaussian, Inc., Wallingford CT, 2016.
 
 ******************************************
 Gaussian 16:  EM64W-G16RevB.01 16-Dec-2017
                16-Apr-2026 
 ******************************************
 %chk=D:\APPs\lihaibei\molecules-use\C6H3OH3.chk
 --------------------------------
 # opt hf/6-31g geom=connectivity
 --------------------------------
 1/18=20,19=15,38=1,57=2/1,3;
 2/9=110,12=2,17=6,18=5,40=1/2;
 3/5=1,6=6,11=9,25=1,30=1,71=1/1,2,3;
 4//1;
 5/5=2,38=5/2;
 6/7=2,8=2,9=2,10=2,28=1/1;
 7//1,2,3,16;
 1/18=20,19=15/3(2);
 2/9=110/2;
 99//99;
 2/9=110/2;
 3/5=1,6=6,11=9,25=1,30=1,71=1/1,2,3;
 4/5=5,16=3,69=1/1;
 5/5=2,38=5/2;
 7//1,2,3,16;
 1/18=20,19=15/3(-5);
 2/9=110/2;
 6/7=2,8=2,9=2,10=2,19=2,28=1/1;
 99/9=1/99;
 -------------------
 Title Card Required
 -------------------
 Symbolic Z-matrix:
 Charge =  0 Multiplicity = 1
 C                    -0.3559   -1.34878   0. 
 C                     0.9903   -0.98242   0. 
 C                     1.34603   0.36617   0. 
 C                     0.35565   1.34883   0. 
 C                    -0.99013   0.98261   0. 
 C                    -1.34595  -0.36641   0. 
 H                     1.77064  -1.75721   0. 
 H                     0.63646   2.41203   0. 
 H                    -2.40711  -0.65482   0. 
 O                     2.72599   0.74173   0. 
 H                     2.7975    1.69906   0. 
 O                    -0.72064  -2.73164   0. 
 H                     0.07268  -3.27224   0. 
 O                    -2.00535   1.98992   0. 
 H                    -2.87018   1.57318   0. 
 

 GradGradGradGradGradGradGradGradGradGradGradGradGradGradGradGradGradGrad
 Berny optimization.
 Initialization pass.
                           ----------------------------
                           !    Initial Parameters    !
                           ! (Angstroms and Degrees)  !
 --------------------------                            --------------------------
 ! Name  Definition              Value          Derivative Info.                !
 --------------------------------------------------------------------------------
 ! R1    R(1,2)                  1.3952         estimate D2E/DX2                !
 ! R2    R(1,6)                  1.3947         estimate D2E/DX2                !
 ! R3    R(1,12)                 1.4302         estimate D2E/DX2                !
 ! R4    R(2,3)                  1.3947         estimate D2E/DX2                !
 ! R5    R(2,7)                  1.0997         estimate D2E/DX2                !
 ! R6    R(3,4)                  1.3952         estimate D2E/DX2                !
 ! R7    R(3,10)                 1.4302         estimate D2E/DX2                !
 ! R8    R(4,5)                  1.3947         estimate D2E/DX2                !
 ! R9    R(4,8)                  1.0997         estimate D2E/DX2                !
 ! R10   R(5,6)                  1.3952         estimate D2E/DX2                !
 ! R11   R(5,14)                 1.4302         estimate D2E/DX2                !
 ! R12   R(6,9)                  1.0997         estimate D2E/DX2                !
 ! R13   R(10,11)                0.96           estimate D2E/DX2                !
 ! R14   R(12,13)                0.96           estimate D2E/DX2                !
 ! R15   R(14,15)                0.96           estimate D2E/DX2                !
 ! A1    A(2,1,6)              119.9989         estimate D2E/DX2                !
 ! A2    A(2,1,12)             119.9997         estimate D2E/DX2                !
 ! A3    A(6,1,12)             120.0014         estimate D2E/DX2                !
 ! A4    A(1,2,3)              120.0011         estimate D2E/DX2                !
 ! A5    A(1,2,7)              119.9808         estimate D2E/DX2                !
 ! A6    A(3,2,7)              120.0181         estimate D2E/DX2                !
 ! A7    A(2,3,4)              119.9989         estimate D2E/DX2                !
 ! A8    A(2,3,10)             120.0014         estimate D2E/DX2                !
 ! A9    A(4,3,10)             119.9997         estimate D2E/DX2                !
 ! A10   A(3,4,5)              120.0011         estimate D2E/DX2                !
 ! A11   A(3,4,8)              119.9808         estimate D2E/DX2                !
 ! A12   A(5,4,8)              120.0181         estimate D2E/DX2                !
 ! A13   A(4,5,6)              119.9989         estimate D2E/DX2                !
 ! A14   A(4,5,14)             120.0014         estimate D2E/DX2                !
 ! A15   A(6,5,14)             119.9997         estimate D2E/DX2                !
 ! A16   A(1,6,5)              120.0011         estimate D2E/DX2                !
 ! A17   A(1,6,9)              120.0181         estimate D2E/DX2                !
 ! A18   A(5,6,9)              119.9808         estimate D2E/DX2                !
 ! A19   A(3,10,11)            109.4961         estimate D2E/DX2                !
 ! A20   A(1,12,13)            109.4961         estimate D2E/DX2                !
 ! A21   A(5,14,15)            109.4961         estimate D2E/DX2                !
 ! D1    D(6,1,2,3)              0.0            estimate D2E/DX2                !
 ! D2    D(6,1,2,7)            180.0            estimate D2E/DX2                !
 ! D3    D(12,1,2,3)           180.0            estimate D2E/DX2                !
 ! D4    D(12,1,2,7)             0.0            estimate D2E/DX2                !
 ! D5    D(2,1,6,5)              0.0            estimate D2E/DX2                !
 ! D6    D(2,1,6,9)            180.0            estimate D2E/DX2                !
 ! D7    D(12,1,6,5)           180.0            estimate D2E/DX2                !
 ! D8    D(12,1,6,9)             0.0            estimate D2E/DX2                !
 ! D9    D(2,1,12,13)            0.0            estimate D2E/DX2                !
 ! D10   D(6,1,12,13)          180.0            estimate D2E/DX2                !
 ! D11   D(1,2,3,4)              0.0            estimate D2E/DX2                !
 ! D12   D(1,2,3,10)           180.0            estimate D2E/DX2                !
 ! D13   D(7,2,3,4)            180.0            estimate D2E/DX2                !
 ! D14   D(7,2,3,10)             0.0            estimate D2E/DX2                !
 ! D15   D(2,3,4,5)              0.0            estimate D2E/DX2                !
 ! D16   D(2,3,4,8)            180.0            estimate D2E/DX2                !
 ! D17   D(10,3,4,5)           180.0            estimate D2E/DX2                !
 ! D18   D(10,3,4,8)             0.0            estimate D2E/DX2                !
 ! D19   D(2,3,10,11)          180.0            estimate D2E/DX2                !
 ! D20   D(4,3,10,11)            0.0            estimate D2E/DX2                !
 ! D21   D(3,4,5,6)              0.0            estimate D2E/DX2                !
 ! D22   D(3,4,5,14)           180.0            estimate D2E/DX2                !
 ! D23   D(8,4,5,6)            180.0            estimate D2E/DX2                !
 ! D24   D(8,4,5,14)             0.0            estimate D2E/DX2                !
 ! D25   D(4,5,6,1)              0.0            estimate D2E/DX2                !
 ! D26   D(4,5,6,9)            180.0            estimate D2E/DX2                !
 ! D27   D(14,5,6,1)           180.0            estimate D2E/DX2                !
 ! D28   D(14,5,6,9)             0.0            estimate D2E/DX2                !
 ! D29   D(4,5,14,15)          180.0            estimate D2E/DX2                !
 ! D30   D(6,5,14,15)            0.0            estimate D2E/DX2                !
 --------------------------------------------------------------------------------
 Trust Radius=3.00D-01 FncErr=1.00D-07 GrdErr=1.00D-07 EigMax=2.50D+02 EigMin=1.00D-04
 Number of steps in this run=     76 maximum allowed number of steps=    100.
 GradGradGradGradGradGradGradGradGradGradGradGradGradGradGradGradGradGrad

                          Input orientation:                          
 ---------------------------------------------------------------------
 Center     Atomic      Atomic             Coordinates (Angstroms)
 Number     Number       Type             X           Y           Z
 ---------------------------------------------------------------------
      1          6           0       -0.355903   -1.348781    0.000000
      2          6           0        0.990295   -0.982419    0.000000
      3          6           0        1.346030    0.366170    0.000000
      4          6           0        0.355652    1.348831    0.000000
      5          6           0       -0.990127    0.982612    0.000000
      6          6           0       -1.345948   -0.366411    0.000000
      7          1           0        1.770645   -1.757207    0.000000
      8          1           0        0.636464    2.412027    0.000000
      9          1           0       -2.407108   -0.654820    0.000000
     10          8           0        2.725994    0.741728    0.000000
     11          1           0        2.797501    1.699061    0.000000
     12          8           0       -0.720642   -2.731644    0.000000
     13          1           0        0.072679   -3.272238    0.000000
     14          8           0       -2.005352    1.989916    0.000000
     15          1           0       -2.870180    1.573177    0.000000
 ---------------------------------------------------------------------
                    Distance matrix (angstroms):
                    1          2          3          4          5
     1  C    0.000000
     2  C    1.395160   0.000000
     3  C    2.416119   1.394718   0.000000
     4  C    2.789878   2.416091   1.395160   0.000000
     5  C    2.416119   2.789878   2.416119   1.394718   0.000000
     6  C    1.394718   2.416091   2.789878   2.416091   1.395160
     7  H    2.165414   1.099655   2.165416   3.413162   3.889533
     8  H    3.889533   3.412838   2.165414   1.099655   2.165416
     9  H    2.165416   3.413162   3.889533   3.412838   2.165414
    10  O    3.724019   2.446494   1.430155   2.446854   3.723920
    11  H    4.385578   3.233625   1.970626   2.466838   3.854793
    12  O    1.430155   2.446854   3.723920   4.220033   3.724019
    13  H    1.970626   2.466838   3.854793   4.629724   4.385578
    14  O    3.723920   4.220033   3.724019   2.446494   1.430155
    15  H    3.854793   4.629724   4.385578   3.233625   1.970626
                    6          7          8          9         10
     6  C    0.000000
     7  H    3.412838   0.000000
     8  H    3.413162   4.320750   0.000000
     9  H    1.099655   4.320750   4.320750   0.000000
    10  O    4.220033   2.675326   2.675076   5.319688   0.000000
    11  H    4.629724   3.605582   2.275611   5.712155   0.960000
    12  O    2.446494   2.675076   5.319688   2.675326   4.893220
    13  H    3.233625   2.275611   5.712155   3.605582   4.811652
    14  O    2.446854   5.319688   2.675326   2.675076   4.893220
    15  H    2.466838   5.712155   3.605582   2.275611   5.657603
                   11         12         13         14         15
    11  H    0.000000
    12  O    5.657603   0.000000
    13  H    5.669080   0.960000   0.000000
    14  O    4.811652   4.893220   5.657603   0.000000
    15  H    5.669080   4.811652   5.669080   0.960000   0.000000
 Stoichiometry    C6H6O3
 Framework group  C3H[SGH(C6H6O3)]
 Deg. of freedom     9
 Full point group                 C3H     NOp   6
 Largest Abelian subgroup         CS      NOp   2
 Largest concise Abelian subgroup C1      NOp   1
                         Standard orientation:                         
 ---------------------------------------------------------------------
 Center     Atomic      Atomic             Coordinates (Angstroms)
 Number     Number       Type             X           Y           Z
 ---------------------------------------------------------------------
      1          6           0       -1.208187    0.697253    0.000000
      2          6           0        0.000000    1.394931    0.000000
      3          6           0        1.207932    0.697694    0.000000
      4          6           0        1.208046   -0.697465    0.000000
      5          6           0        0.000255   -1.394947    0.000000
      6          6           0       -1.208046   -0.697465    0.000000
      7          1           0       -0.000458    2.494586    0.000000
      8          1           0        2.160604   -1.246896    0.000000
      9          1           0       -2.160146   -1.247690    0.000000
     10          8           0        2.446428    1.412867    0.000000
     11          1           0        3.176423    0.789403    0.000000
     12          8           0       -2.446792    1.412235    0.000000
     13          1           0       -2.271855    2.356161    0.000000
     14          8           0        0.000365   -2.825102    0.000000
     15          1           0       -0.904568   -3.145565    0.000000
 ---------------------------------------------------------------------
 Rotational constants (GHZ):           1.7600366           1.7600366           0.8800183
 Standard basis: 6-31G (6D, 7F)
 There are    75 symmetry adapted cartesian basis functions of A'  symmetry.
 There are    18 symmetry adapted cartesian basis functions of A"  symmetry.
 There are    75 symmetry adapted basis functions of A'  symmetry.
 There are    18 symmetry adapted basis functions of A"  symmetry.
    93 basis functions,   222 primitive gaussians,    93 cartesian basis functions
    33 alpha electrons       33 beta electrons
       nuclear repulsion energy       420.9423704198 Hartrees.
 NAtoms=   15 NActive=   15 NUniq=    5 SFac= 4.00D+00 NAtFMM=   60 NAOKFM=F Big=F
 Integral buffers will be    131072 words long.
 Raffenetti 1 integral format.
 Two-electron integral symmetry is turned on.
 One-electron integrals computed using PRISM.
 NBasis=    93 RedAO= T EigKep=  5.95D-04  NBF=    75    18
 NBsUse=    93 1.00D-06 EigRej= -1.00D+00 NBFU=    75    18
 ExpMin= 1.61D-01 ExpMax= 5.48D+03 ExpMxC= 8.25D+02 IAcc=3 IRadAn=         5 AccDes= 0.00D+00
 Harris functional with IExCor=  205 and IRadAn=       5 diagonalized for initial guess.
 HarFok:  IExCor=  205 AccDes= 0.00D+00 IRadAn=         5 IDoV= 1 UseB2=F ITyADJ=14
 ICtDFT=  3500011 ScaDFX=  1.000000  1.000000  1.000000  1.000000
 FoFCou: FMM=F IPFlag=           0 FMFlag=      100000 FMFlg1=           0
         NFxFlg=           0 DoJE=T BraDBF=F KetDBF=T FulRan=T
         wScrn=  0.000000 ICntrl=       500 IOpCl=  0 I1Cent=   200000004 NGrid=           0
         NMat0=    1 NMatS0=      1 NMatT0=    0 NMatD0=    1 NMtDS0=    0 NMtDT0=    0
 Petite list used in FoFCou.
 Initial guess orbital symmetries:
       Occupied  (E') (E') (A') (A') (E') (E') (E') (E') (A') (A')
                 (E') (E') (A') (E') (E') (E') (E') (A') (A') (E')
                 (E') (A') (A") (E') (E') (A') (E') (E') (E") (E")
                 (A") (E") (E")
       Virtual   (E") (E") (A') (E') (E') (A') (A") (E') (E') (E')
                 (E') (A') (E') (E') (E') (E') (A') (A") (A') (A')
                 (E') (E') (E") (E") (A') (A') (E') (E') (E") (E")
                 (E') (E') (A") (A') (E') (E') (A') (A") (E') (E')
                 (E") (E") (A') (E') (E') (A') (E') (E') (A') (E')
                 (E') (A') (E') (E') (E') (E') (A') (E') (E') (A')
 The electronic state of the initial guess is 1-A'.
 Keep R1 ints in memory in symmetry-blocked form, NReq=15042909.
 Requested convergence on RMS density matrix=1.00D-08 within 128 cycles.
 Requested convergence on MAX density matrix=1.00D-06.
 Requested convergence on             energy=1.00D-06.
 No special actions if energy rises.
 SCF Done:  E(RHF) =  -455.079439292     A.U. after   12 cycles
            NFock= 12  Conv=0.86D-08     -V/T= 2.0010

 **********************************************************************

            Population analysis using the SCF Density.

 **********************************************************************

 Orbital symmetries:
       Occupied  (E') (E') (A') (A') (E') (E') (E') (E') (A') (A')
                 (E') (E') (A') (E') (E') (E') (E') (A') (A') (E')
                 (E') (A') (A") (E') (E') (E") (E") (A') (E') (E')
                 (A") (E") (E")
       Virtual   (E") (E") (E') (E') (A') (A') (E') (E') (A") (A')
                 (E') (E') (E') (E') (E') (E') (A') (A') (A") (A')
                 (E") (E") (E') (E') (E') (E') (A') (E") (E") (A')
                 (A") (E') (E') (A') (E') (E') (A') (E') (E') (A")
                 (E") (E") (A') (E') (E') (A') (E') (E') (A') (E')
                 (E') (A') (E') (E') (E') (E') (A') (E') (E') (A')
 The electronic state is 1-A'.
 Alpha  occ. eigenvalues --  -20.60226 -20.60226 -20.60225 -11.34047 -11.34047
 Alpha  occ. eigenvalues --  -11.34047 -11.25396 -11.25396 -11.25392  -1.40245
 Alpha  occ. eigenvalues --   -1.39816  -1.39816  -1.16931  -1.03176  -1.03176
 Alpha  occ. eigenvalues --   -0.85639  -0.85639  -0.76755  -0.70825  -0.68223
 Alpha  occ. eigenvalues --   -0.68223  -0.67494  -0.60920  -0.58827  -0.58827
 Alpha  occ. eigenvalues --   -0.56968  -0.56968  -0.54599  -0.52864  -0.52864
 Alpha  occ. eigenvalues --   -0.46202  -0.33810  -0.33810
 Alpha virt. eigenvalues --    0.13868   0.13868   0.20944   0.20944   0.20967
 Alpha virt. eigenvalues --    0.23668   0.30068   0.30068   0.36042   0.38955
 Alpha virt. eigenvalues --    0.43552   0.43552   0.46392   0.46392   0.60512
 Alpha virt. eigenvalues --    0.60512   0.63354   0.69623   0.72333   0.75058
 Alpha virt. eigenvalues --    0.82216   0.82216   0.83537   0.83537   0.87565
 Alpha virt. eigenvalues --    0.87565   0.89935   0.90305   0.90305   0.94210
 Alpha virt. eigenvalues --    1.00975   1.03352   1.03352   1.06473   1.12196
 Alpha virt. eigenvalues --    1.12196   1.16316   1.19012   1.19012   1.20960
 Alpha virt. eigenvalues --    1.24852   1.24852   1.27828   1.27954   1.27954
 Alpha virt. eigenvalues --    1.33171   1.37945   1.37945   1.41890   1.48725
 Alpha virt. eigenvalues --    1.48725   1.54987   1.60950   1.60950   1.70997
 Alpha virt. eigenvalues --    1.70997   1.90592   2.30048   2.30048   2.33245
          Condensed to atoms (all electrons):
               1          2          3          4          5          6
     1  C    4.649082   0.461366  -0.037192  -0.006681  -0.037192   0.450240
     2  C    0.461366   5.306772   0.450240  -0.109505  -0.006681  -0.109505
     3  C   -0.037192   0.450240   4.649082   0.461366  -0.037192  -0.006681
     4  C   -0.006681  -0.109505   0.461366   5.306772   0.450240  -0.109505
     5  C   -0.037192  -0.006681  -0.037192   0.450240   4.649082   0.461366
     6  C    0.450240  -0.109505  -0.006681  -0.109505   0.461366   5.306772
     7  H   -0.038201   0.370946  -0.011586   0.003251   0.000019   0.002227
     8  H    0.000019   0.002227  -0.038201   0.370946  -0.011586   0.003251
     9  H   -0.011586   0.003251   0.000019   0.002227  -0.038201   0.370946
    10  O    0.001325  -0.040344   0.203135  -0.070404   0.004536   0.000186
    11  H   -0.000096   0.004935  -0.035633   0.000525   0.000596   0.000014
    12  O    0.203135  -0.070404   0.004536   0.000186   0.001325  -0.040344
    13  H   -0.035633   0.000525   0.000596   0.000014  -0.000096   0.004935
    14  O    0.004536   0.000186   0.001325  -0.040344   0.203135  -0.070404
    15  H    0.000596   0.000014  -0.000096   0.004935  -0.035633   0.000525
               7          8          9         10         11         12
     1  C   -0.038201   0.000019  -0.011586   0.001325  -0.000096   0.203135
     2  C    0.370946   0.002227   0.003251  -0.040344   0.004935  -0.070404
     3  C   -0.011586  -0.038201   0.000019   0.203135  -0.035633   0.004536
     4  C    0.003251   0.370946   0.002227  -0.070404   0.000525   0.000186
     5  C    0.000019  -0.011586  -0.038201   0.004536   0.000596   0.001325
     6  C    0.002227   0.003251   0.370946   0.000186   0.000014  -0.040344
     7  H    0.449906  -0.000071  -0.000071  -0.000937  -0.000046  -0.004065
     8  H   -0.000071   0.449906  -0.000071  -0.004065   0.002614   0.000000
     9  H   -0.000071  -0.000071   0.449906   0.000000   0.000000  -0.000937
    10  O   -0.000937  -0.004065   0.000000   8.419375   0.265190  -0.000006
    11  H   -0.000046   0.002614   0.000000   0.265190   0.342195   0.000000
    12  O   -0.004065   0.000000  -0.000937  -0.000006   0.000000   8.419375
    13  H    0.002614   0.000000  -0.000046  -0.000002   0.000000   0.265190
    14  O    0.000000  -0.000937  -0.004065  -0.000006  -0.000002  -0.000006
    15  H    0.000000  -0.000046   0.002614   0.000000   0.000000  -0.000002
              13         14         15
     1  C   -0.035633   0.004536   0.000596
     2  C    0.000525   0.000186   0.000014
     3  C    0.000596   0.001325  -0.000096
     4  C    0.000014  -0.040344   0.004935
     5  C   -0.000096   0.203135  -0.035633
     6  C    0.004935  -0.070404   0.000525
     7  H    0.002614   0.000000   0.000000
     8  H    0.000000  -0.000937  -0.000046
     9  H   -0.000046  -0.004065   0.002614
    10  O   -0.000002  -0.000006   0.000000
    11  H    0.000000  -0.000002   0.000000
    12  O    0.265190  -0.000006  -0.000002
    13  H    0.342195   0.000000   0.000000
    14  O    0.000000   8.419375   0.265190
    15  H    0.000000   0.265190   0.342195
 Mulliken charges:
               1
     1  C    0.396283
     2  C   -0.264021
     3  C    0.396283
     4  C   -0.264021
     5  C    0.396283
     6  C   -0.264021
     7  H    0.226014
     8  H    0.226014
     9  H    0.226014
    10  O   -0.777985
    11  H    0.419709
    12  O   -0.777985
    13  H    0.419709
    14  O   -0.777985
    15  H    0.419709
 Sum of Mulliken charges =   0.00000
 Mulliken charges with hydrogens summed into heavy atoms:
               1
     1  C    0.396283
     2  C   -0.038007
     3  C    0.396283
     4  C   -0.038007
     5  C    0.396283
     6  C   -0.038007
    10  O   -0.358276
    12  O   -0.358276
    14  O   -0.358276
 Electronic spatial extent (au):  <R**2>=           1231.3749
 Charge=              0.0000 electrons
 Dipole moment (field-independent basis, Debye):
    X=              0.0000    Y=              0.0000    Z=              0.0000  Tot=              0.0000
 Quadrupole moment (field-independent basis, Debye-Ang):
   XX=            -49.8164   YY=            -49.8164   ZZ=            -56.0541
   XY=              0.0000   XZ=              0.0000   YZ=              0.0000
 Traceless Quadrupole moment (field-independent basis, Debye-Ang):
   XX=              2.0793   YY=              2.0793   ZZ=             -4.1585
   XY=              0.0000   XZ=              0.0000   YZ=              0.0000
 Octapole moment (field-independent basis, Debye-Ang**2):
  XXX=             46.5434  YYY=             20.4946  ZZZ=              0.0000  XYY=            -46.5434
  XXY=            -20.4946  XXZ=              0.0000  XZZ=              0.0000  YZZ=              0.0000
  YYZ=              0.0000  XYZ=              0.0000
 Hexadecapole moment (field-independent basis, Debye-Ang**3):
 XXXX=           -663.4967 YYYY=           -663.4967 ZZZZ=            -53.6714 XXXY=              0.0000
 XXXZ=              0.0000 YYYX=              0.0000 YYYZ=              0.0000 ZZZX=              0.0000
 ZZZY=              0.0000 XXYY=           -221.1656 XXZZ=           -135.9117 YYZZ=           -135.9117
 XXYZ=              0.0000 YYXZ=              0.0000 ZZXY=              0.0000
 N-N= 4.209423704198D+02 E-N=-1.910845980992D+03  KE= 4.546347236220D+02
 Symmetry A'   KE= 4.347003997423D+02
 Symmetry A"   KE= 1.993432387964D+01
 Calling FoFJK, ICntrl=      2127 FMM=F ISym2X=1 I1Cent= 0 IOpClX= 0 NMat=1 NMatS=1 NMatT=0.
 ***** Axes restored to original set *****
 -------------------------------------------------------------------
 Center     Atomic                   Forces (Hartrees/Bohr)
 Number     Number              X              Y              Z
 -------------------------------------------------------------------
      1        6           0.000953575   -0.012457686    0.000000000
      2        6           0.017645850   -0.013896823    0.000000000
      3        6           0.010311885    0.007054663    0.000000000
      4        6           0.003212076    0.022230165    0.000000000
      5        6          -0.011265460    0.005403023    0.000000000
      6        6          -0.020857926   -0.008333343    0.000000000
      7        1          -0.011510789    0.015827654    0.000000000
      8        1          -0.007951756   -0.017882463    0.000000000
      9        1           0.019462545    0.002054808    0.000000000
     10        8          -0.044341291   -0.005710978    0.000000000
     11        1           0.005133574   -0.009183439    0.000000000
     12        8           0.017224794    0.041256173    0.000000000
     13        1          -0.010519878    0.000145914    0.000000000
     14        8           0.027116497   -0.035545195    0.000000000
     15        1           0.005386304    0.009037525    0.000000000
 -------------------------------------------------------------------
 Cartesian Forces:  Max     0.044341291 RMS     0.014498433

 GradGradGradGradGradGradGradGradGradGradGradGradGradGradGradGradGradGrad
 Berny optimization.
 FormGI is forming the generalized inverse of G from B-inverse, IUseBI=4.
 Internal  Forces:  Max     0.041742985 RMS     0.011936258
 Search for a local minimum.
 Step number   1 out of a maximum of   76
 All quantities printed in internal units (Hartrees-Bohrs-Radians)
 Mixed Optimization -- RFO/linear search
 Second derivative matrix not updated -- first step.
 ITU=  0
     Eigenvalues ---    0.01293   0.01293   0.01293   0.01983   0.02007
     Eigenvalues ---    0.02007   0.02154   0.02154   0.02156   0.02156
     Eigenvalues ---    0.02157   0.02157   0.16000   0.16000   0.16000
     Eigenvalues ---    0.16000   0.16000   0.16000   0.23479   0.23479
     Eigenvalues ---    0.23500   0.25000   0.25000   0.25000   0.33720
     Eigenvalues ---    0.33720   0.33720   0.40967   0.40967   0.40967
     Eigenvalues ---    0.42412   0.42412   0.46432   0.46470   0.46470
     Eigenvalues ---    0.46507   0.55473   0.55473   0.55473
 RFO step:  Lambda=-2.48679595D-02 EMin= 1.29288878D-02
 Linear search not attempted -- first point.
 Iteration  1 RMS(Cart)=  0.04866156 RMS(Int)=  0.00142002
 Iteration  2 RMS(Cart)=  0.00138746 RMS(Int)=  0.00000056
 Iteration  3 RMS(Cart)=  0.00000074 RMS(Int)=  0.00000000
 ClnCor:  largest displacement from symmetrization is 1.71D-10 for atom    10.
 Variable       Old X    -DE/DX   Delta X   Delta X   Delta X     New X
                                 (Linear)    (Quad)   (Total)
    R1        2.63647  -0.01184   0.00000  -0.02420  -0.02420   2.61227
    R2        2.63564  -0.01511   0.00000  -0.03084  -0.03084   2.60480
    R3        2.70260  -0.04174   0.00000  -0.09606  -0.09606   2.60654
    R4        2.63564  -0.01511   0.00000  -0.03084  -0.03084   2.60480
    R5        2.07805  -0.01932   0.00000  -0.05336  -0.05336   2.02469
    R6        2.63647  -0.01184   0.00000  -0.02420  -0.02420   2.61227
    R7        2.70260  -0.04174   0.00000  -0.09606  -0.09606   2.60654
    R8        2.63564  -0.01511   0.00000  -0.03084  -0.03084   2.60480
    R9        2.07805  -0.01932   0.00000  -0.05336  -0.05336   2.02469
   R10        2.63647  -0.01184   0.00000  -0.02420  -0.02420   2.61227
   R11        2.70260  -0.04174   0.00000  -0.09606  -0.09606   2.60654
   R12        2.07805  -0.01932   0.00000  -0.05336  -0.05336   2.02469
   R13        1.81414  -0.00878   0.00000  -0.01514  -0.01514   1.79900
   R14        1.81414  -0.00878   0.00000  -0.01514  -0.01514   1.79900
   R15        1.81414  -0.00878   0.00000  -0.01514  -0.01514   1.79900
    A1        2.09438   0.00835   0.00000   0.03215   0.03215   2.12652
    A2        2.09439   0.00659   0.00000   0.02312   0.02312   2.11751
    A3        2.09442  -0.01495   0.00000  -0.05526  -0.05526   2.03916
    A4        2.09442  -0.00835   0.00000  -0.03215  -0.03215   2.06227
    A5        2.09406   0.00742   0.00000   0.03362   0.03362   2.12768
    A6        2.09471   0.00093   0.00000  -0.00147  -0.00147   2.09324
    A7        2.09438   0.00835   0.00000   0.03215   0.03215   2.12652
    A8        2.09442  -0.01495   0.00000  -0.05526  -0.05526   2.03916
    A9        2.09439   0.00659   0.00000   0.02312   0.02312   2.11751
   A10        2.09442  -0.00835   0.00000  -0.03215  -0.03215   2.06227
   A11        2.09406   0.00742   0.00000   0.03362   0.03362   2.12768
   A12        2.09471   0.00093   0.00000  -0.00147  -0.00147   2.09324
   A13        2.09438   0.00835   0.00000   0.03215   0.03215   2.12652
   A14        2.09442  -0.01495   0.00000  -0.05526  -0.05526   2.03916
   A15        2.09439   0.00659   0.00000   0.02312   0.02312   2.11751
   A16        2.09442  -0.00835   0.00000  -0.03215  -0.03215   2.06227
   A17        2.09471   0.00093   0.00000  -0.00147  -0.00147   2.09324
   A18        2.09406   0.00742   0.00000   0.03362   0.03362   2.12768
   A19        1.91107   0.01053   0.00000   0.05695   0.05695   1.96802
   A20        1.91107   0.01053   0.00000   0.05695   0.05695   1.96802
   A21        1.91107   0.01053   0.00000   0.05695   0.05695   1.96802
    D1        0.00000   0.00000   0.00000   0.00000   0.00000   0.00000
    D2        3.14159   0.00000   0.00000   0.00000   0.00000   3.14159
    D3        3.14159   0.00000   0.00000   0.00000   0.00000   3.14159
    D4        0.00000   0.00000   0.00000   0.00000   0.00000   0.00000
    D5        0.00000   0.00000   0.00000   0.00000   0.00000   0.00000
    D6        3.14159   0.00000   0.00000   0.00000   0.00000   3.14159
    D7        3.14159   0.00000   0.00000   0.00000   0.00000   3.14159
    D8        0.00000   0.00000   0.00000   0.00000   0.00000   0.00000
    D9        0.00000   0.00000   0.00000   0.00000   0.00000   0.00000
   D10        3.14159   0.00000   0.00000   0.00000   0.00000   3.14159
   D11        0.00000   0.00000   0.00000   0.00000   0.00000   0.00000
   D12        3.14159   0.00000   0.00000   0.00000   0.00000   3.14159
   D13        3.14159   0.00000   0.00000   0.00000   0.00000   3.14159
   D14        0.00000   0.00000   0.00000   0.00000   0.00000   0.00000
   D15        0.00000   0.00000   0.00000   0.00000   0.00000   0.00000
   D16        3.14159   0.00000   0.00000   0.00000   0.00000   3.14159
   D17        3.14159   0.00000   0.00000   0.00000   0.00000   3.14159
   D18        0.00000   0.00000   0.00000   0.00000   0.00000   0.00000
   D19        3.14159   0.00000   0.00000   0.00000   0.00000   3.14159
   D20        0.00000   0.00000   0.00000   0.00000   0.00000   0.00000
   D21        0.00000   0.00000   0.00000   0.00000   0.00000   0.00000
   D22        3.14159   0.00000   0.00000   0.00000   0.00000   3.14159
   D23        3.14159   0.00000   0.00000   0.00000   0.00000   3.14159
   D24        0.00000   0.00000   0.00000   0.00000   0.00000   0.00000
   D25        0.00000   0.00000   0.00000   0.00000   0.00000   0.00000
   D26        3.14159   0.00000   0.00000   0.00000   0.00000   3.14159
   D27        3.14159   0.00000   0.00000   0.00000   0.00000   3.14159
   D28        0.00000   0.00000   0.00000   0.00000   0.00000   0.00000
   D29        3.14159   0.00000   0.00000   0.00000   0.00000   3.14159
   D30        0.00000   0.00000   0.00000   0.00000   0.00000   0.00000
         Item               Value     Threshold  Converged?
 Maximum Force            0.041743     0.000450     NO 
 RMS     Force            0.011936     0.000300     NO 
 Maximum Displacement     0.151432     0.001800     NO 
 RMS     Displacement     0.049070     0.001200     NO 
 Predicted change in Energy=-1.332443D-02
 GradGradGradGradGradGradGradGradGradGradGradGradGradGradGradGradGradGrad

                          Input orientation:                          
 ---------------------------------------------------------------------
 Center     Atomic      Atomic             Coordinates (Angstroms)
 Number     Number       Type             X           Y           Z
 ---------------------------------------------------------------------
      1          6           0       -0.330537   -1.326848    0.000000
      2          6           0        1.003836   -0.965798    0.000000
      3          6           0        1.314352    0.377170    0.000000
      4          6           0        0.334488    1.352246    0.000000
      5          6           0       -0.983815    0.949678    0.000000
      6          6           0       -1.338323   -0.386448    0.000000
      7          1           0        1.788024   -1.695856    0.000000
      8          1           0        0.574643    2.396402    0.000000
      9          1           0       -2.362667   -0.700546    0.000000
     10          8           0        2.653765    0.706563    0.000000
     11          1           0        2.801751    1.646979    0.000000
     12          8           0       -0.714981   -2.651509    0.000000
     13          1           0        0.025450   -3.249877    0.000000
     14          8           0       -1.938784    1.944946    0.000000
     15          1           0       -2.827201    1.602898    0.000000
 ---------------------------------------------------------------------
                    Distance matrix (angstroms):
                    1          2          3          4          5
     1  C    0.000000
     2  C    1.382356   0.000000
     3  C    2.368404   1.378399   0.000000
     4  C    2.760399   2.412748   1.382356   0.000000
     5  C    2.368404   2.760399   2.368404   1.378399   0.000000
     6  C    1.378399   2.412748   2.760399   2.412748   1.382356
     7  H    2.150458   1.071418   2.126453   3.376936   3.831702
     8  H    3.831702   3.389483   2.150458   1.071418   2.126453
     9  H    2.126453   3.376936   3.831702   3.389483   2.150458
    10  O    3.611208   2.349268   1.379321   2.407479   3.645695
    11  H    4.319129   3.171608   1.955701   2.484805   3.849252
    12  O    1.379321   2.407479   3.645695   4.139015   3.611208
    13  H    1.955701   2.484805   3.849252   4.612487   4.319129
    14  O    3.645695   4.139015   3.611208   2.349268   1.379321
    15  H    3.849252   4.612487   4.319129   3.171608   1.955701
                    6          7          8          9         10
     6  C    0.000000
     7  H    3.389483   0.000000
     8  H    3.376936   4.268358   0.000000
     9  H    1.071418   4.268358   4.268358   0.000000
    10  O    4.139015   2.553650   2.679236   5.210043   0.000000
    11  H    4.612487   3.493163   2.349818   5.672925   0.951988
    12  O    2.349268   2.679236   5.210043   2.553650   4.756585
    13  H    3.171608   2.349818   5.672925   3.493163   4.749890
    14  O    2.407479   5.210043   2.553650   2.679236   4.756585
    15  H    2.484805   5.672925   3.493163   2.349818   5.553774
                   11         12         13         14         15
    11  H    0.000000
    12  O    5.553774   0.000000
    13  H    5.629124   0.951988   0.000000
    14  O    4.749890   4.756585   5.553774   0.000000
    15  H    5.629124   4.749890   5.629124   0.951988   0.000000
 Stoichiometry    C6H6O3
 Framework group  C3H[SGH(C6H6O3)]
 Deg. of freedom     9
 Full point group                 C3H     NOp   6
 Largest Abelian subgroup         CS      NOp   2
 Largest concise Abelian subgroup C1      NOp   1
                         Standard orientation:                         
 ---------------------------------------------------------------------
 Center     Atomic      Atomic             Coordinates (Angstroms)
 Number     Number       Type             X           Y           Z
 ---------------------------------------------------------------------
      1          6           0        0.000000    1.367399    0.000000
      2          6           0        1.207526    0.694502    0.000000
      3          6           0        1.184202   -0.683699    0.000000
      4          6           0       -0.002306   -1.392999    0.000000
      5          6           0       -1.184202   -0.683699    0.000000
      6          6           0       -1.205219    0.698497    0.000000
      7          1           0        2.144933    1.213351    0.000000
      8          1           0       -0.021674   -2.464242    0.000000
      9          1           0       -2.123259    1.250891    0.000000
     10          8           0        2.404270   -1.327096    0.000000
     11          1           0        2.320544   -2.275395    0.000000
     12          8           0       -0.052836    2.745707    0.000000
     13          1           0        0.810278    3.147347    0.000000
     14          8           0       -2.351434   -1.418611    0.000000
     15          1           0       -3.130822   -0.871952    0.000000
 ---------------------------------------------------------------------
 Rotational constants (GHZ):           1.8399120           1.8399120           0.9199560
 Standard basis: 6-31G (6D, 7F)
 There are    75 symmetry adapted cartesian basis functions of A'  symmetry.
 There are    18 symmetry adapted cartesian basis functions of A"  symmetry.
 There are    75 symmetry adapted basis functions of A'  symmetry.
 There are    18 symmetry adapted basis functions of A"  symmetry.
    93 basis functions,   222 primitive gaussians,    93 cartesian basis functions
    33 alpha electrons       33 beta electrons
       nuclear repulsion energy       429.3193733026 Hartrees.
 NAtoms=   15 NActive=   15 NUniq=    5 SFac= 4.00D+00 NAtFMM=   60 NAOKFM=F Big=F
 Integral buffers will be    131072 words long.
 Raffenetti 1 integral format.
 Two-electron integral symmetry is turned on.
 One-electron integrals computed using PRISM.
 NBasis=    93 RedAO= T EigKep=  5.69D-04  NBF=    75    18
 NBsUse=    93 1.00D-06 EigRej= -1.00D+00 NBFU=    75    18
 Initial guess from the checkpoint file:  "D:\APPs\lihaibei\molecules-use\C6H3OH3.chk"
 B after Tr=     0.000000    0.000000    0.000000
         Rot=    0.869457    0.000000    0.000000    0.494009 Ang=  59.21 deg.
 Initial guess orbital symmetries:
       Occupied  (?A) (?A) (?B) (?B) (?A) (?A) (?A) (?A) (?B) (?B)
                 (?A) (?A) (?B) (?A) (?A) (?A) (?A) (?B) (?B) (?A)
                 (?A) (?B) (A") (?A) (?A) (E") (E") (?B) (?A) (?A)
                 (A") (E") (E")
       Virtual   (E") (E") (?A) (?A) (?B) (?B) (?A) (?A) (A") (?B)
                 (?A) (?A) (?A) (?A) (?A) (?A) (?B) (?B) (A") (?B)
                 (E") (E") (?A) (?A) (?A) (?A) (?B) (E") (E") (?B)
                 (A") (?A) (?A) (?B) (?A) (?A) (?B) (?A) (?A) (A")
                 (E") (E") (?B) (?A) (?A) (?B) (?A) (?A) (?B) (?A)
                 (?A) (?B) (?A) (?A) (?A) (?A) (?B) (?A) (?A) (?B)
 ExpMin= 1.61D-01 ExpMax= 5.48D+03 ExpMxC= 8.25D+02 IAcc=3 IRadAn=         5 AccDes= 0.00D+00
 Harris functional with IExCor=  205 and IRadAn=       5 diagonalized for initial guess.
 HarFok:  IExCor=  205 AccDes= 0.00D+00 IRadAn=         5 IDoV= 1 UseB2=F ITyADJ=14
 ICtDFT=  3500011 ScaDFX=  1.000000  1.000000  1.000000  1.000000
 FoFCou: FMM=F IPFlag=           0 FMFlag=      100000 FMFlg1=           0
         NFxFlg=           0 DoJE=T BraDBF=F KetDBF=T FulRan=T
         wScrn=  0.000000 ICntrl=       500 IOpCl=  0 I1Cent=   200000004 NGrid=           0
         NMat0=    1 NMatS0=      1 NMatT0=    0 NMatD0=    1 NMtDS0=    0 NMtDT0=    0
 Petite list used in FoFCou.
 Keep R1 ints in memory in symmetry-blocked form, NReq=15042909.
 Requested convergence on RMS density matrix=1.00D-08 within 128 cycles.
 Requested convergence on MAX density matrix=1.00D-06.
 Requested convergence on             energy=1.00D-06.
 No special actions if energy rises.
 SCF Done:  E(RHF) =  -455.093370356     A.U. after   12 cycles
            NFock= 12  Conv=0.42D-08     -V/T= 1.9993
 Calling FoFJK, ICntrl=      2127 FMM=F ISym2X=1 I1Cent= 0 IOpClX= 0 NMat=1 NMatS=1 NMatT=0.
 ***** Axes restored to original set *****
 -------------------------------------------------------------------
 Center     Atomic                   Forces (Hartrees/Bohr)
 Number     Number              X              Y              Z
 -------------------------------------------------------------------
      1        6           0.000495891   -0.012191854    0.000000000
      2        6          -0.000692607   -0.005882402    0.000000000
      3        6           0.010310510    0.006525381    0.000000000
      4        6           0.005440613    0.002341386    0.000000000
      5        6          -0.010806401    0.005666473    0.000000000
      6        6          -0.004748006    0.003541016    0.000000000
      7        1           0.000411944    0.000908256    0.000000000
      8        1          -0.000992545   -0.000097374    0.000000000
      9        1           0.000580600   -0.000810882    0.000000000
     10        8          -0.008320039    0.001790607    0.000000000
     11        1           0.003189080   -0.002075371    0.000000000
     12        8           0.005710731    0.006310061    0.000000000
     13        1          -0.003391864   -0.001724139    0.000000000
     14        8           0.002609308   -0.008100668    0.000000000
     15        1           0.000202784    0.003799509    0.000000000
 -------------------------------------------------------------------
 Cartesian Forces:  Max     0.012191854 RMS     0.004257315

 GradGradGradGradGradGradGradGradGradGradGradGradGradGradGradGradGradGrad
 Berny optimization.
 Using GEDIIS/GDIIS optimizer.
 FormGI is forming the generalized inverse of G from B-inverse, IUseBI=4.
 Internal  Forces:  Max     0.007373745 RMS     0.002518160
 Search for a local minimum.
 Step number   2 out of a maximum of   76
 All quantities printed in internal units (Hartrees-Bohrs-Radians)
 Mixed Optimization -- RFO/linear search
 Update second derivatives using D2CorX and points    1    2
 DE= -1.39D-02 DEPred=-1.33D-02 R= 1.05D+00
 TightC=F SS=  1.41D+00  RLast= 2.68D-01 DXNew= 5.0454D-01 8.0283D-01
 Trust test= 1.05D+00 RLast= 2.68D-01 DXMaxT set to 5.05D-01
 ITU=  1  0
 Use linear search instead of GDIIS.
     Eigenvalues ---    0.01293   0.01293   0.01293   0.01991   0.02012
     Eigenvalues ---    0.02012   0.02154   0.02154   0.02156   0.02156
     Eigenvalues ---    0.02157   0.02157   0.14574   0.16000   0.16000
     Eigenvalues ---    0.16000   0.16000   0.16016   0.23506   0.23506
     Eigenvalues ---    0.24126   0.24778   0.25000   0.25000   0.33720
     Eigenvalues ---    0.33720   0.33981   0.37959   0.40967   0.40967
     Eigenvalues ---    0.42336   0.42336   0.46411   0.46470   0.46470
     Eigenvalues ---    0.53194   0.55357   0.55473   0.55473
 RFO step:  Lambda=-1.45960783D-03 EMin= 1.29288878D-02
 Quartic linear search produced a step of  0.07904.
 Iteration  1 RMS(Cart)=  0.01900564 RMS(Int)=  0.00042443
 Iteration  2 RMS(Cart)=  0.00038448 RMS(Int)=  0.00000003
 Iteration  3 RMS(Cart)=  0.00000005 RMS(Int)=  0.00000000
 ClnCor:  largest displacement from symmetrization is 2.60D-10 for atom    14.
 Variable       Old X    -DE/DX   Delta X   Delta X   Delta X     New X
                                 (Linear)    (Quad)   (Total)
    R1        2.61227   0.00255  -0.00191   0.00673   0.00482   2.61709
    R2        2.60480   0.00737  -0.00244   0.01811   0.01567   2.62047
    R3        2.60654  -0.00505  -0.00759  -0.00979  -0.01739   2.58915
    R4        2.60480   0.00737  -0.00244   0.01811   0.01567   2.62047
    R5        2.02469  -0.00032  -0.00422   0.00106  -0.00316   2.02153
    R6        2.61227   0.00255  -0.00191   0.00673   0.00482   2.61709
    R7        2.60654  -0.00505  -0.00759  -0.00979  -0.01739   2.58915
    R8        2.60480   0.00737  -0.00244   0.01811   0.01567   2.62047
    R9        2.02469  -0.00032  -0.00422   0.00106  -0.00316   2.02153
   R10        2.61227   0.00255  -0.00191   0.00673   0.00482   2.61709
   R11        2.60654  -0.00505  -0.00759  -0.00979  -0.01739   2.58915
   R12        2.02469  -0.00032  -0.00422   0.00106  -0.00316   2.02153
   R13        1.79900  -0.00155  -0.00120  -0.00252  -0.00372   1.79528
   R14        1.79900  -0.00155  -0.00120  -0.00252  -0.00372   1.79528
   R15        1.79900  -0.00155  -0.00120  -0.00252  -0.00372   1.79528
    A1        2.12652  -0.00094   0.00254  -0.00574  -0.00320   2.12332
    A2        2.11751   0.00236   0.00183   0.00923   0.01106   2.12856
    A3        2.03916  -0.00142  -0.00437  -0.00349  -0.00786   2.03130
    A4        2.06227   0.00094  -0.00254   0.00574   0.00320   2.06547
    A5        2.12768   0.00049   0.00266   0.00254   0.00520   2.13287
    A6        2.09324  -0.00143  -0.00012  -0.00828  -0.00839   2.08484
    A7        2.12652  -0.00094   0.00254  -0.00574  -0.00320   2.12332
    A8        2.03916  -0.00142  -0.00437  -0.00349  -0.00786   2.03130
    A9        2.11751   0.00236   0.00183   0.00923   0.01106   2.12856
   A10        2.06227   0.00094  -0.00254   0.00574   0.00320   2.06547
   A11        2.12768   0.00049   0.00266   0.00254   0.00520   2.13287
   A12        2.09324  -0.00143  -0.00012  -0.00828  -0.00839   2.08484
   A13        2.12652  -0.00094   0.00254  -0.00574  -0.00320   2.12332
   A14        2.03916  -0.00142  -0.00437  -0.00349  -0.00786   2.03130
   A15        2.11751   0.00236   0.00183   0.00923   0.01106   2.12856
   A16        2.06227   0.00094  -0.00254   0.00574   0.00320   2.06547
   A17        2.09324  -0.00143  -0.00012  -0.00828  -0.00839   2.08484
   A18        2.12768   0.00049   0.00266   0.00254   0.00520   2.13287
   A19        1.96802   0.00625   0.00450   0.03854   0.04304   2.01106
   A20        1.96802   0.00625   0.00450   0.03854   0.04304   2.01106
   A21        1.96802   0.00625   0.00450   0.03854   0.04304   2.01106
    D1        0.00000   0.00000   0.00000   0.00000   0.00000   0.00000
    D2        3.14159   0.00000   0.00000   0.00000   0.00000   3.14159
    D3        3.14159   0.00000   0.00000   0.00000   0.00000   3.14159
    D4        0.00000   0.00000   0.00000   0.00000   0.00000   0.00000
    D5        0.00000   0.00000   0.00000   0.00000   0.00000   0.00000
    D6        3.14159   0.00000   0.00000   0.00000   0.00000   3.14159
    D7        3.14159   0.00000   0.00000   0.00000   0.00000   3.14159
    D8        0.00000   0.00000   0.00000   0.00000   0.00000   0.00000
    D9        0.00000   0.00000   0.00000   0.00000   0.00000   0.00000
   D10        3.14159   0.00000   0.00000   0.00000   0.00000   3.14159
   D11        0.00000   0.00000   0.00000   0.00000   0.00000   0.00000
   D12        3.14159   0.00000   0.00000   0.00000   0.00000   3.14159
   D13        3.14159   0.00000   0.00000   0.00000   0.00000   3.14159
   D14        0.00000   0.00000   0.00000   0.00000   0.00000   0.00000
   D15        0.00000   0.00000   0.00000   0.00000   0.00000   0.00000
   D16        3.14159   0.00000   0.00000   0.00000   0.00000   3.14159
   D17        3.14159   0.00000   0.00000   0.00000   0.00000   3.14159
   D18        0.00000   0.00000   0.00000   0.00000   0.00000   0.00000
   D19        3.14159   0.00000   0.00000   0.00000   0.00000   3.14159
   D20        0.00000   0.00000   0.00000   0.00000   0.00000   0.00000
   D21        0.00000   0.00000   0.00000   0.00000   0.00000   0.00000
   D22        3.14159   0.00000   0.00000   0.00000   0.00000   3.14159
   D23        3.14159   0.00000   0.00000   0.00000   0.00000   3.14159
   D24        0.00000   0.00000   0.00000   0.00000   0.00000   0.00000
   D25        0.00000   0.00000   0.00000   0.00000   0.00000   0.00000
   D26        3.14159   0.00000   0.00000   0.00000   0.00000   3.14159
   D27        3.14159   0.00000   0.00000   0.00000   0.00000   3.14159
   D28        0.00000   0.00000   0.00000   0.00000   0.00000   0.00000
   D29        3.14159   0.00000   0.00000   0.00000   0.00000   3.14159
   D30        0.00000   0.00000   0.00000   0.00000   0.00000   0.00000
         Item               Value     Threshold  Converged?
 Maximum Force            0.007374     0.000450     NO 
 RMS     Force            0.002518     0.000300     NO 
 Maximum Displacement     0.074734     0.001800     NO 
 RMS     Displacement     0.018946     0.001200     NO 
 Predicted change in Energy=-8.516466D-04
 GradGradGradGradGradGradGradGradGradGradGradGradGradGradGradGradGradGrad

                          Input orientation:                          
 ---------------------------------------------------------------------
 Center     Atomic      Atomic             Coordinates (Angstroms)
 Number     Number       Type             X           Y           Z
 ---------------------------------------------------------------------
      1          6           0       -0.322943   -1.335593    0.000000
      2          6           0        1.011230   -0.964184    0.000000
      3          6           0        1.318129    0.388120    0.000000
      4          6           0        0.329393    1.357843    0.000000
      5          6           0       -0.995186    0.947473    0.000000
      6          6           0       -1.340623   -0.393659    0.000000
      7          1           0        1.803211   -1.683297    0.000000
      8          1           0        0.556172    2.403275    0.000000
      9          1           0       -2.359383   -0.719978    0.000000
     10          8           0        2.649840    0.710257    0.000000
     11          1           0        2.841299    1.640785    0.000000
     12          8           0       -0.709819   -2.649957    0.000000
     13          1           0        0.000312   -3.281029    0.000000
     14          8           0       -1.940021    1.939700    0.000000
     15          1           0       -2.841611    1.640244    0.000000
 ---------------------------------------------------------------------
                    Distance matrix (angstroms):
                    1          2          3          4          5
     1  C    0.000000
     2  C    1.384905   0.000000
     3  C    2.379979   1.386691   0.000000
     4  C    2.771307   2.420065   1.384905   0.000000
     5  C    2.379979   2.771307   2.379979   1.386691   0.000000
     6  C    1.386691   2.420065   2.771307   2.420065   1.384905
     7  H    2.154397   1.069746   2.127456   3.379448   3.840830
     8  H    3.840830   3.398067   2.154397   1.069746   2.127456
     9  H    2.127456   3.379448   3.840830   3.398067   2.154397
    10  O    3.608731   2.342818   1.370119   2.409116   3.652737
    11  H    4.344105   3.183554   1.972110   2.527790   3.898627
    12  O    1.370119   2.409116   3.652737   4.140341   3.608731
    13  H    1.972110   2.527790   3.898627   4.650530   4.344105
    14  O    3.652737   4.140341   3.608731   2.342818   1.370119
    15  H    3.898627   4.650530   4.344105   3.183554   1.972110
                    6          7          8          9         10
     6  C    0.000000
     7  H    3.398067   0.000000
     8  H    3.379448   4.272607   0.000000
     9  H    1.069746   4.272607   4.272607   0.000000
    10  O    4.140341   2.538874   2.692537   5.209404   0.000000
    11  H    4.650530   3.482405   2.408982   5.711418   0.950020
    12  O    2.342818   2.692537   5.209404   2.538874   4.751668
    13  H    3.183554   2.408982   5.711418   3.482405   4.790654
    14  O    2.409116   5.209404   2.538874   2.692537   4.751668
    15  H    2.527790   5.711418   3.482405   2.408982   5.569642
                   11         12         13         14         15
    11  H    0.000000
    12  O    5.569642   0.000000
    13  H    5.682909   0.950020   0.000000
    14  O    4.790654   4.751668   5.569642   0.000000
    15  H    5.682909   4.790654   5.682909   0.950020   0.000000
 Stoichiometry    C6H6O3
 Framework group  C3H[SGH(C6H6O3)]
 Deg. of freedom     9
 Full point group                 C3H     NOp   6
 Largest Abelian subgroup         CS      NOp   2
 Largest concise Abelian subgroup C1      NOp   1
                         Standard orientation:                         
 ---------------------------------------------------------------------
 Center     Atomic      Atomic             Coordinates (Angstroms)
 Number     Number       Type             X           Y           Z
 ---------------------------------------------------------------------
      1          6           0        0.000000    1.374082    0.000000
      2          6           0        1.209512    0.699513    0.000000
      3          6           0        1.189990   -0.687041    0.000000
      4          6           0        0.001040   -1.397225    0.000000
      5          6           0       -1.189990   -0.687041    0.000000
      6          6           0       -1.210552    0.697711    0.000000
      7          1           0        2.148318    1.212348    0.000000
      8          1           0       -0.024235   -2.466672    0.000000
      9          1           0       -2.124083    1.254324    0.000000
     10          8           0        2.408689   -1.313140    0.000000
     11          1           0        2.376087   -2.262601    0.000000
     12          8           0       -0.067132    2.742555    0.000000
     13          1           0        0.771426    3.189052    0.000000
     14          8           0       -2.341557   -1.429416    0.000000
     15          1           0       -3.147513   -0.926452    0.000000
 ---------------------------------------------------------------------
 Rotational constants (GHZ):           1.8366160           1.8366160           0.9183080
 Standard basis: 6-31G (6D, 7F)
 There are    75 symmetry adapted cartesian basis functions of A'  symmetry.
 There are    18 symmetry adapted cartesian basis functions of A"  symmetry.
 There are    75 symmetry adapted basis functions of A'  symmetry.
 There are    18 symmetry adapted basis functions of A"  symmetry.
    93 basis functions,   222 primitive gaussians,    93 cartesian basis functions
    33 alpha electrons       33 beta electrons
       nuclear repulsion energy       428.9488267052 Hartrees.
 NAtoms=   15 NActive=   15 NUniq=    5 SFac= 4.00D+00 NAtFMM=   60 NAOKFM=F Big=F
 Integral buffers will be    131072 words long.
 Raffenetti 1 integral format.
 Two-electron integral symmetry is turned on.
 One-electron integrals computed using PRISM.
 NBasis=    93 RedAO= T EigKep=  5.87D-04  NBF=    75    18
 NBsUse=    93 1.00D-06 EigRej= -1.00D+00 NBFU=    75    18
 Initial guess from the checkpoint file:  "D:\APPs\lihaibei\molecules-use\C6H3OH3.chk"
 B after Tr=     0.000000    0.000000    0.000000
         Rot=    0.999997    0.000000    0.000000   -0.002467 Ang=  -0.28 deg.
 Initial guess orbital symmetries:
       Occupied  (?A) (?A) (?B) (?B) (?A) (?A) (?A) (?A) (?B) (?B)
                 (?A) (?A) (?B) (?A) (?A) (?A) (?A) (?B) (?B) (?A)
                 (?A) (?B) (A") (?A) (?A) (E") (E") (?B) (?A) (?A)
                 (A") (E") (E")
       Virtual   (E") (E") (?A) (?A) (?B) (?B) (?A) (?A) (A") (?B)
                 (?A) (?A) (?A) (?A) (?B) (?A) (?A) (?B) (A") (?B)
                 (E") (E") (?A) (?A) (?A) (?A) (E") (E") (?B) (?B)
                 (A") (?A) (?A) (?B) (?A) (?A) (?B) (?A) (?A) (A")
                 (E") (E") (?B) (?A) (?A) (?B) (?A) (?A) (?B) (?A)
                 (?A) (?B) (?A) (?A) (?A) (?A) (?B) (?B) (?A) (?A)
 ExpMin= 1.61D-01 ExpMax= 5.48D+03 ExpMxC= 8.25D+02 IAcc=3 IRadAn=         5 AccDes= 0.00D+00
 Harris functional with IExCor=  205 and IRadAn=       5 diagonalized for initial guess.
 HarFok:  IExCor=  205 AccDes= 0.00D+00 IRadAn=         5 IDoV= 1 UseB2=F ITyADJ=14
 ICtDFT=  3500011 ScaDFX=  1.000000  1.000000  1.000000  1.000000
 FoFCou: FMM=F IPFlag=           0 FMFlag=      100000 FMFlg1=           0
         NFxFlg=           0 DoJE=T BraDBF=F KetDBF=T FulRan=T
         wScrn=  0.000000 ICntrl=       500 IOpCl=  0 I1Cent=   200000004 NGrid=           0
         NMat0=    1 NMatS0=      1 NMatT0=    0 NMatD0=    1 NMtDS0=    0 NMtDT0=    0
 Petite list used in FoFCou.
 Keep R1 ints in memory in symmetry-blocked form, NReq=15042909.
 Requested convergence on RMS density matrix=1.00D-08 within 128 cycles.
 Requested convergence on MAX density matrix=1.00D-06.
 Requested convergence on             energy=1.00D-06.
 No special actions if energy rises.
 SCF Done:  E(RHF) =  -455.094127913     A.U. after   12 cycles
            NFock= 12  Conv=0.36D-08     -V/T= 1.9994
 Calling FoFJK, ICntrl=      2127 FMM=F ISym2X=1 I1Cent= 0 IOpClX= 0 NMat=1 NMatS=1 NMatT=0.
 ***** Axes restored to original set *****
 -------------------------------------------------------------------
 Center     Atomic                   Forces (Hartrees/Bohr)
 Number     Number              X              Y              Z
 -------------------------------------------------------------------
      1        6           0.003140754   -0.000870005    0.000000000
      2        6          -0.003287437   -0.000559781    0.000000000
      3        6          -0.000816930    0.003154975    0.000000000
      4        6           0.002128503   -0.002567114    0.000000000
      5        6          -0.002323824   -0.002284970    0.000000000
      6        6           0.001158934    0.003126895    0.000000000
      7        1           0.000808496   -0.000527855    0.000000000
      8        1           0.000052888    0.000964105    0.000000000
      9        1          -0.000861384   -0.000436250    0.000000000
     10        8           0.000542123   -0.000630210    0.000000000
     11        1          -0.000763114   -0.000121837    0.000000000
     12        8          -0.000816839   -0.000154388    0.000000000
     13        1           0.000276043    0.000721795    0.000000000
     14        8           0.000274716    0.000784598    0.000000000
     15        1           0.000487071   -0.000599958    0.000000000
 -------------------------------------------------------------------
 Cartesian Forces:  Max     0.003287437 RMS     0.001263919

 GradGradGradGradGradGradGradGradGradGradGradGradGradGradGradGradGradGrad
 Berny optimization.
 Using GEDIIS/GDIIS optimizer.
 FormGI is forming the generalized inverse of G from B-inverse, IUseBI=4.
 Internal  Forces:  Max     0.002155698 RMS     0.000615449
 Search for a local minimum.
 Step number   3 out of a maximum of   76
 All quantities printed in internal units (Hartrees-Bohrs-Radians)
 Mixed Optimization -- En-DIIS/RFO-DIIS
 Update second derivatives using D2CorX and points    1    2    3
 DE= -7.58D-04 DEPred=-8.52D-04 R= 8.90D-01
 TightC=F SS=  1.41D+00  RLast= 9.08D-02 DXNew= 8.4853D-01 2.7245D-01
 Trust test= 8.90D-01 RLast= 9.08D-02 DXMaxT set to 5.05D-01
 ITU=  1  1  0
 Use linear search instead of GDIIS.
     Eigenvalues ---    0.01293   0.01293   0.01293   0.01990   0.02012
     Eigenvalues ---    0.02012   0.02154   0.02154   0.02156   0.02156
     Eigenvalues ---    0.02157   0.02157   0.15649   0.16000   0.16000
     Eigenvalues ---    0.16000   0.16000   0.17421   0.23431   0.23504
     Eigenvalues ---    0.23504   0.24690   0.25000   0.25000   0.33720
     Eigenvalues ---    0.33720   0.34702   0.35774   0.40967   0.40967
     Eigenvalues ---    0.42364   0.42364   0.46470   0.46470   0.47575
     Eigenvalues ---    0.53061   0.55300   0.55473   0.55473
 RFO step:  Lambda=-6.04753318D-05 EMin= 1.29288878D-02
 Quartic linear search produced a step of -0.07043.
 Iteration  1 RMS(Cart)=  0.00233946 RMS(Int)=  0.00000447
 Iteration  2 RMS(Cart)=  0.00000408 RMS(Int)=  0.00000000
 Iteration  3 RMS(Cart)=  0.00000000 RMS(Int)=  0.00000000
 ClnCor:  largest displacement from symmetrization is 4.92D-10 for atom    14.
 Variable       Old X    -DE/DX   Delta X   Delta X   Delta X     New X
                                 (Linear)    (Quad)   (Total)
    R1        2.61709  -0.00216  -0.00034  -0.00383  -0.00417   2.61292
    R2        2.62047   0.00079  -0.00110   0.00315   0.00205   2.62252
    R3        2.58915  -0.00039   0.00122  -0.00262  -0.00140   2.58775
    R4        2.62047   0.00079  -0.00110   0.00315   0.00205   2.62252
    R5        2.02153   0.00095   0.00022   0.00231   0.00253   2.02406
    R6        2.61709  -0.00216  -0.00034  -0.00383  -0.00417   2.61292
    R7        2.58915  -0.00039   0.00122  -0.00262  -0.00140   2.58775
    R8        2.62047   0.00079  -0.00110   0.00315   0.00205   2.62252
    R9        2.02153   0.00095   0.00022   0.00231   0.00253   2.02406
   R10        2.61709  -0.00216  -0.00034  -0.00383  -0.00417   2.61292
   R11        2.58915  -0.00039   0.00122  -0.00262  -0.00140   2.58775
   R12        2.02153   0.00095   0.00022   0.00231   0.00253   2.02406
   R13        1.79528  -0.00027   0.00026  -0.00083  -0.00056   1.79471
   R14        1.79528  -0.00027   0.00026  -0.00083  -0.00056   1.79471
   R15        1.79528  -0.00027   0.00026  -0.00083  -0.00056   1.79471
    A1        2.12332  -0.00017   0.00023  -0.00099  -0.00077   2.12255
    A2        2.12856   0.00032  -0.00078   0.00232   0.00154   2.13010
    A3        2.03130  -0.00014   0.00055  -0.00132  -0.00077   2.03053
    A4        2.06547   0.00017  -0.00023   0.00099   0.00077   2.06624
    A5        2.13287   0.00007  -0.00037   0.00110   0.00073   2.13361
    A6        2.08484  -0.00024   0.00059  -0.00209  -0.00150   2.08334
    A7        2.12332  -0.00017   0.00023  -0.00099  -0.00077   2.12255
    A8        2.03130  -0.00014   0.00055  -0.00132  -0.00077   2.03053
    A9        2.12856   0.00032  -0.00078   0.00232   0.00154   2.13010
   A10        2.06547   0.00017  -0.00023   0.00099   0.00077   2.06624
   A11        2.13287   0.00007  -0.00037   0.00110   0.00073   2.13361
   A12        2.08484  -0.00024   0.00059  -0.00209  -0.00150   2.08334
   A13        2.12332  -0.00017   0.00023  -0.00099  -0.00077   2.12255
   A14        2.03130  -0.00014   0.00055  -0.00132  -0.00077   2.03053
   A15        2.12856   0.00032  -0.00078   0.00232   0.00154   2.13010
   A16        2.06547   0.00017  -0.00023   0.00099   0.00077   2.06624
   A17        2.08484  -0.00024   0.00059  -0.00209  -0.00150   2.08334
   A18        2.13287   0.00007  -0.00037   0.00110   0.00073   2.13361
   A19        2.01106  -0.00130  -0.00303  -0.00318  -0.00621   2.00485
   A20        2.01106  -0.00130  -0.00303  -0.00318  -0.00621   2.00485
   A21        2.01106  -0.00130  -0.00303  -0.00318  -0.00621   2.00485
    D1        0.00000   0.00000   0.00000   0.00000   0.00000   0.00000
    D2        3.14159   0.00000   0.00000   0.00000   0.00000   3.14159
    D3        3.14159   0.00000   0.00000   0.00000   0.00000   3.14159
    D4        0.00000   0.00000   0.00000   0.00000   0.00000   0.00000
    D5        0.00000   0.00000   0.00000   0.00000   0.00000   0.00000
    D6        3.14159   0.00000   0.00000   0.00000   0.00000   3.14159
    D7        3.14159   0.00000   0.00000   0.00000   0.00000   3.14159
    D8        0.00000   0.00000   0.00000   0.00000   0.00000   0.00000
    D9        0.00000   0.00000   0.00000   0.00000   0.00000   0.00000
   D10        3.14159   0.00000   0.00000   0.00000   0.00000   3.14159
   D11        0.00000   0.00000   0.00000   0.00000   0.00000   0.00000
   D12        3.14159   0.00000   0.00000   0.00000   0.00000   3.14159
   D13        3.14159   0.00000   0.00000   0.00000   0.00000   3.14159
   D14        0.00000   0.00000   0.00000   0.00000   0.00000   0.00000
   D15        0.00000   0.00000   0.00000   0.00000   0.00000   0.00000
   D16        3.14159   0.00000   0.00000   0.00000   0.00000   3.14159
   D17        3.14159   0.00000   0.00000   0.00000   0.00000   3.14159
   D18        0.00000   0.00000   0.00000   0.00000   0.00000   0.00000
   D19        3.14159   0.00000   0.00000   0.00000   0.00000   3.14159
   D20        0.00000   0.00000   0.00000   0.00000   0.00000   0.00000
   D21        0.00000   0.00000   0.00000   0.00000   0.00000   0.00000
   D22        3.14159   0.00000   0.00000   0.00000   0.00000   3.14159
   D23        3.14159   0.00000   0.00000   0.00000   0.00000   3.14159
   D24        0.00000   0.00000   0.00000   0.00000   0.00000   0.00000
   D25        0.00000   0.00000   0.00000   0.00000   0.00000   0.00000
   D26        3.14159   0.00000   0.00000   0.00000   0.00000   3.14159
   D27        3.14159   0.00000   0.00000   0.00000   0.00000   3.14159
   D28        0.00000   0.00000   0.00000   0.00000   0.00000   0.00000
   D29        3.14159   0.00000   0.00000   0.00000   0.00000   3.14159
   D30        0.00000   0.00000   0.00000   0.00000   0.00000   0.00000
         Item               Value     Threshold  Converged?
 Maximum Force            0.002156     0.000450     NO 
 RMS     Force            0.000615     0.000300     NO 
 Maximum Displacement     0.009756     0.001800     NO 
 RMS     Displacement     0.002341     0.001200     NO 
 Predicted change in Energy=-3.450955D-05
 GradGradGradGradGradGradGradGradGradGradGradGradGradGradGradGradGradGrad

                          Input orientation:                          
 ---------------------------------------------------------------------
 Center     Atomic      Atomic             Coordinates (Angstroms)
 Number     Number       Type             X           Y           Z
 ---------------------------------------------------------------------
      1          6           0       -0.322313   -1.335497    0.000000
      2          6           0        1.009696   -0.964540    0.000000
      3          6           0        1.317731    0.388617    0.000000
      4          6           0        0.330468    1.356692    0.000000
      5          6           0       -0.995418    0.946880    0.000000
      6          6           0       -1.340164   -0.392153    0.000000
      7          1           0        1.803272   -1.683887    0.000000
      8          1           0        0.556653    2.403623    0.000000
      9          1           0       -2.359925   -0.719736    0.000000
     10          8           0        2.649183    0.708676    0.000000
     11          1           0        2.836136    1.639815    0.000000
     12          8           0       -0.710860   -2.648597    0.000000
     13          1           0        0.002053   -3.276073    0.000000
     14          8           0       -1.938323    1.939922    0.000000
     15          1           0       -2.838189    1.636259    0.000000
 ---------------------------------------------------------------------
                    Distance matrix (angstroms):
                    1          2          3          4          5
     1  C    0.000000
     2  C    1.382700   0.000000
     3  C    2.379562   1.387775   0.000000
     4  C    2.770200   2.418568   1.382700   0.000000
     5  C    2.379562   2.770200   2.379562   1.387775   0.000000
     6  C    1.387775   2.418568   2.770200   2.418568   1.382700
     7  H    2.153947   1.071085   2.128620   3.378502   3.841042
     8  H    3.841042   3.398495   2.153947   1.071085   2.128620
     9  H    2.128620   3.378502   3.841042   3.398495   2.153947
    10  O    3.606720   2.342556   1.369380   2.407564   3.652377
    11  H    4.339157   3.180966   1.967498   2.521613   3.893709
    12  O    1.369380   2.407564   3.652377   4.138443   3.606720
    13  H    1.967498   2.521613   3.893709   4.644392   4.339157
    14  O    3.652377   4.138443   3.606720   2.342556   1.369380
    15  H    3.893709   4.644392   4.339157   3.180966   1.967498
                    6          7          8          9         10
     6  C    0.000000
     7  H    3.398495   0.000000
     8  H    3.378502   4.273382   0.000000
     9  H    1.071085   4.273382   4.273382   0.000000
    10  O    4.138443   2.537700   2.692866   5.208792   0.000000
    11  H    4.644392   3.480489   2.404048   5.706709   0.949722
    12  O    2.342556   2.692866   5.208792   2.537700   4.749860
    13  H    3.180966   2.404048   5.706709   3.480489   4.783881
    14  O    2.407564   5.208792   2.537700   2.692866   4.749860
    15  H    2.521613   5.706709   3.480489   2.404048   5.565219
                   11         12         13         14         15
    11  H    0.000000
    12  O    5.565219   0.000000
    13  H    5.674326   0.949722   0.000000
    14  O    4.783881   4.749860   5.565219   0.000000
    15  H    5.674326   4.783881   5.674326   0.949722   0.000000
 Stoichiometry    C6H6O3
 Framework group  C3H[SGH(C6H6O3)]
 Deg. of freedom     9
 Full point group                 C3H     NOp   6
 Largest Abelian subgroup         CS      NOp   2
 Largest concise Abelian subgroup C1      NOp   1
                         Standard orientation:                         
 ---------------------------------------------------------------------
 Center     Atomic      Atomic             Coordinates (Angstroms)
 Number     Number       Type             X           Y           Z
 ---------------------------------------------------------------------
      1          6           0        0.000000    1.373841    0.000000
      2          6           0        1.207804    0.700738    0.000000
      3          6           0        1.189781   -0.686921    0.000000
      4          6           0        0.002955   -1.396358    0.000000
      5          6           0       -1.189781   -0.686921    0.000000
      6          6           0       -1.210759    0.695620    0.000000
      7          1           0        2.147995    1.213829    0.000000
      8          1           0       -0.022790   -2.467133    0.000000
      9          1           0       -2.125205    1.253303    0.000000
     10          8           0        2.408984   -1.310414    0.000000
     11          1           0        2.372268   -2.259426    0.000000
     12          8           0       -0.069640    2.741449    0.000000
     13          1           0        0.770586    3.184157    0.000000
     14          8           0       -2.339344   -1.431035    0.000000
     15          1           0       -3.142854   -0.924731    0.000000
 ---------------------------------------------------------------------
 Rotational constants (GHZ):           1.8382094           1.8382094           0.9191047
 Standard basis: 6-31G (6D, 7F)
 There are    75 symmetry adapted cartesian basis functions of A'  symmetry.
 There are    18 symmetry adapted cartesian basis functions of A"  symmetry.
 There are    75 symmetry adapted basis functions of A'  symmetry.
 There are    18 symmetry adapted basis functions of A"  symmetry.
    93 basis functions,   222 primitive gaussians,    93 cartesian basis functions
    33 alpha electrons       33 beta electrons
       nuclear repulsion energy       429.1269153362 Hartrees.
 NAtoms=   15 NActive=   15 NUniq=    5 SFac= 4.00D+00 NAtFMM=   60 NAOKFM=F Big=F
 Integral buffers will be    131072 words long.
 Raffenetti 1 integral format.
 Two-electron integral symmetry is turned on.
 One-electron integrals computed using PRISM.
 NBasis=    93 RedAO= T EigKep=  5.84D-04  NBF=    75    18
 NBsUse=    93 1.00D-06 EigRej= -1.00D+00 NBFU=    75    18
 Initial guess from the checkpoint file:  "D:\APPs\lihaibei\molecules-use\C6H3OH3.chk"
 B after Tr=     0.000000    0.000000    0.000000
         Rot=    1.000000    0.000000    0.000000   -0.000371 Ang=  -0.04 deg.
 Initial guess orbital symmetries:
       Occupied  (?A) (?A) (?B) (?B) (?A) (?A) (?A) (?A) (?B) (?B)
                 (?A) (?A) (?B) (?A) (?A) (?A) (?A) (?B) (?B) (?A)
                 (?A) (?B) (A") (?A) (?A) (E") (E") (?B) (?A) (?A)
                 (A") (E") (E")
       Virtual   (E") (E") (?A) (?A) (?B) (?B) (?A) (?A) (A") (?B)
                 (?A) (?A) (?A) (?A) (?B) (?A) (?A) (?B) (A") (?B)
                 (E") (E") (?A) (?A) (?A) (?A) (E") (E") (?B) (?B)
                 (A") (?A) (?A) (?B) (?A) (?A) (?B) (?A) (?A) (A")
                 (E") (E") (?A) (?A) (?B) (?B) (?A) (?A) (?B) (?A)
                 (?A) (?B) (?A) (?A) (?A) (?A) (?B) (?B) (?A) (?A)
 Keep R1 ints in memory in symmetry-blocked form, NReq=15042909.
 Requested convergence on RMS density matrix=1.00D-08 within 128 cycles.
 Requested convergence on MAX density matrix=1.00D-06.
 Requested convergence on             energy=1.00D-06.
 No special actions if energy rises.
 SCF Done:  E(RHF) =  -455.094168470     A.U. after    9 cycles
            NFock=  9  Conv=0.81D-08     -V/T= 1.9993
 Calling FoFJK, ICntrl=      2127 FMM=F ISym2X=1 I1Cent= 0 IOpClX= 0 NMat=1 NMatS=1 NMatT=0.
 ***** Axes restored to original set *****
 -------------------------------------------------------------------
 Center     Atomic                   Forces (Hartrees/Bohr)
 Number     Number              X              Y              Z
 -------------------------------------------------------------------
      1        6           0.001298637    0.000105381    0.000000000
      2        6          -0.001031707   -0.000771162    0.000000000
      3        6          -0.000740581    0.001071962    0.000000000
      4        6           0.001183700   -0.000507903    0.000000000
      5        6          -0.000558056   -0.001177344    0.000000000
      6        6          -0.000151993    0.001279066    0.000000000
      7        1           0.000059118    0.000095099    0.000000000
      8        1          -0.000111917    0.000003648    0.000000000
      9        1           0.000052799   -0.000098747    0.000000000
     10        8           0.000521757   -0.000138368    0.000000000
     11        1           0.000038922    0.000212439    0.000000000
     12        8          -0.000380708   -0.000382671    0.000000000
     13        1           0.000164516   -0.000139927    0.000000000
     14        8          -0.000141049    0.000521039    0.000000000
     15        1          -0.000203438   -0.000072512    0.000000000
 -------------------------------------------------------------------
 Cartesian Forces:  Max     0.001298637 RMS     0.000497141

 GradGradGradGradGradGradGradGradGradGradGradGradGradGradGradGradGradGrad
 Berny optimization.
 Using GEDIIS/GDIIS optimizer.
 FormGI is forming the generalized inverse of G from B-inverse, IUseBI=4.
 Internal  Forces:  Max     0.000712030 RMS     0.000245034
 Search for a local minimum.
 Step number   4 out of a maximum of   76
 All quantities printed in internal units (Hartrees-Bohrs-Radians)
 Mixed Optimization -- En-DIIS/RFO-DIIS
 Swapping is turned off.
 Update second derivatives using D2CorX and points    1    2    3    4
 DE= -4.06D-05 DEPred=-3.45D-05 R= 1.18D+00
 TightC=F SS=  1.41D+00  RLast= 1.51D-02 DXNew= 8.4853D-01 4.5208D-02
 Trust test= 1.18D+00 RLast= 1.51D-02 DXMaxT set to 5.05D-01
 ITU=  1  1  1  0
     Eigenvalues ---    0.01293   0.01293   0.01293   0.01990   0.02011
     Eigenvalues ---    0.02011   0.02154   0.02154   0.02156   0.02156
     Eigenvalues ---    0.02157   0.02157   0.14837   0.16000   0.16000
     Eigenvalues ---    0.16000   0.16000   0.17526   0.21917   0.23503
     Eigenvalues ---    0.23503   0.24716   0.25000   0.25000   0.33596
     Eigenvalues ---    0.33720   0.33720   0.35352   0.40967   0.40967
     Eigenvalues ---    0.42361   0.42361   0.42620   0.46470   0.46470
     Eigenvalues ---    0.53569   0.55473   0.55473   0.58728
 En-DIIS/RFO-DIIS/Sim-DIIS IScMMF=       -3 using points:     4    3
 RFO step:  Lambda=-1.26311215D-05.
 DidBck=F Rises=F RFO-DIIS coefs:    1.28683   -0.28683
 Iteration  1 RMS(Cart)=  0.00064768 RMS(Int)=  0.00000032
 Iteration  2 RMS(Cart)=  0.00000041 RMS(Int)=  0.00000000
 ClnCor:  largest displacement from symmetrization is 6.01D-11 for atom    10.
 Variable       Old X    -DE/DX   Delta X   Delta X   Delta X     New X
                                 (Linear)    (Quad)   (Total)
    R1        2.61292  -0.00071  -0.00120  -0.00130  -0.00249   2.61043
    R2        2.62252   0.00062   0.00059   0.00135   0.00194   2.62446
    R3        2.58775   0.00056  -0.00040   0.00156   0.00116   2.58891
    R4        2.62252   0.00062   0.00059   0.00135   0.00194   2.62446
    R5        2.02406  -0.00002   0.00073  -0.00057   0.00016   2.02421
    R6        2.61292  -0.00071  -0.00120  -0.00130  -0.00249   2.61043
    R7        2.58775   0.00056  -0.00040   0.00156   0.00116   2.58891
    R8        2.62252   0.00062   0.00059   0.00135   0.00194   2.62446
    R9        2.02406  -0.00002   0.00073  -0.00057   0.00016   2.02421
   R10        2.61292  -0.00071  -0.00120  -0.00130  -0.00249   2.61043
   R11        2.58775   0.00056  -0.00040   0.00156   0.00116   2.58891
   R12        2.02406  -0.00002   0.00073  -0.00057   0.00016   2.02421
   R13        1.79471   0.00022  -0.00016   0.00050   0.00034   1.79505
   R14        1.79471   0.00022  -0.00016   0.00050   0.00034   1.79505
   R15        1.79471   0.00022  -0.00016   0.00050   0.00034   1.79505
    A1        2.12255  -0.00010  -0.00022  -0.00033  -0.00055   2.12200
    A2        2.13010   0.00012   0.00044   0.00051   0.00095   2.13105
    A3        2.03053  -0.00002  -0.00022  -0.00018  -0.00040   2.03013
    A4        2.06624   0.00010   0.00022   0.00033   0.00055   2.06679
    A5        2.13361   0.00006   0.00021   0.00061   0.00082   2.13443
    A6        2.08334  -0.00016  -0.00043  -0.00094  -0.00137   2.08197
    A7        2.12255  -0.00010  -0.00022  -0.00033  -0.00055   2.12200
    A8        2.03053  -0.00002  -0.00022  -0.00018  -0.00040   2.03013
    A9        2.13010   0.00012   0.00044   0.00051   0.00095   2.13105
   A10        2.06624   0.00010   0.00022   0.00033   0.00055   2.06679
   A11        2.13361   0.00006   0.00021   0.00061   0.00082   2.13443
   A12        2.08334  -0.00016  -0.00043  -0.00094  -0.00137   2.08197
   A13        2.12255  -0.00010  -0.00022  -0.00033  -0.00055   2.12200
   A14        2.03053  -0.00002  -0.00022  -0.00018  -0.00040   2.03013
   A15        2.13010   0.00012   0.00044   0.00051   0.00095   2.13105
   A16        2.06624   0.00010   0.00022   0.00033   0.00055   2.06679
   A17        2.08334  -0.00016  -0.00043  -0.00094  -0.00137   2.08197
   A18        2.13361   0.00006   0.00021   0.00061   0.00082   2.13443
   A19        2.00485  -0.00001  -0.00178   0.00122  -0.00056   2.00429
   A20        2.00485  -0.00001  -0.00178   0.00122  -0.00056   2.00429
   A21        2.00485  -0.00001  -0.00178   0.00122  -0.00056   2.00429
    D1        0.00000   0.00000   0.00000   0.00000   0.00000   0.00000
    D2        3.14159   0.00000   0.00000   0.00000   0.00000   3.14159
    D3        3.14159   0.00000   0.00000   0.00000   0.00000   3.14159
    D4        0.00000   0.00000   0.00000   0.00000   0.00000   0.00000
    D5        0.00000   0.00000   0.00000   0.00000   0.00000   0.00000
    D6        3.14159   0.00000   0.00000   0.00000   0.00000   3.14159
    D7        3.14159   0.00000   0.00000   0.00000   0.00000   3.14159
    D8        0.00000   0.00000   0.00000   0.00000   0.00000   0.00000
    D9        0.00000   0.00000   0.00000   0.00000   0.00000   0.00000
   D10        3.14159   0.00000   0.00000   0.00000   0.00000   3.14159
   D11        0.00000   0.00000   0.00000   0.00000   0.00000   0.00000
   D12        3.14159   0.00000   0.00000   0.00000   0.00000   3.14159
   D13        3.14159   0.00000   0.00000   0.00000   0.00000   3.14159
   D14        0.00000   0.00000   0.00000   0.00000   0.00000   0.00000
   D15        0.00000   0.00000   0.00000   0.00000   0.00000   0.00000
   D16        3.14159   0.00000   0.00000   0.00000   0.00000   3.14159
   D17        3.14159   0.00000   0.00000   0.00000   0.00000   3.14159
   D18        0.00000   0.00000   0.00000   0.00000   0.00000   0.00000
   D19        3.14159   0.00000   0.00000   0.00000   0.00000   3.14159
   D20        0.00000   0.00000   0.00000   0.00000   0.00000   0.00000
   D21        0.00000   0.00000   0.00000   0.00000   0.00000   0.00000
   D22        3.14159   0.00000   0.00000   0.00000   0.00000   3.14159
   D23        3.14159   0.00000   0.00000   0.00000   0.00000   3.14159
   D24        0.00000   0.00000   0.00000   0.00000   0.00000   0.00000
   D25        0.00000   0.00000   0.00000   0.00000   0.00000   0.00000
   D26        3.14159   0.00000   0.00000   0.00000   0.00000   3.14159
   D27        3.14159   0.00000   0.00000   0.00000   0.00000   3.14159
   D28        0.00000   0.00000   0.00000   0.00000   0.00000   0.00000
   D29        3.14159   0.00000   0.00000   0.00000   0.00000   3.14159
   D30        0.00000   0.00000   0.00000   0.00000   0.00000   0.00000
         Item               Value     Threshold  Converged?
 Maximum Force            0.000712     0.000450     NO 
 RMS     Force            0.000245     0.000300     YES
 Maximum Displacement     0.001515     0.001800     YES
 RMS     Displacement     0.000648     0.001200     YES
 Predicted change in Energy=-6.315827D-06
 GradGradGradGradGradGradGradGradGradGradGradGradGradGradGradGradGradGrad

                          Input orientation:                          
 ---------------------------------------------------------------------
 Center     Atomic      Atomic             Coordinates (Angstroms)
 Number     Number       Type             X           Y           Z
 ---------------------------------------------------------------------
      1          6           0       -0.321636   -1.335744    0.000000
      2          6           0        1.008993   -0.964753    0.000000
      3          6           0        1.317606    0.389327    0.000000
      4          6           0        0.331004    1.356190    0.000000
      5          6           0       -0.995970    0.946417    0.000000
      6          6           0       -1.339997   -0.391437    0.000000
      7          1           0        1.803428   -1.683273    0.000000
      8          1           0        0.556043    2.403451    0.000000
      9          1           0       -2.359471   -0.720178    0.000000
     10          8           0        2.649862    0.708655    0.000000
     11          1           0        2.836938    1.639952    0.000000
     12          8           0       -0.711218   -2.649175    0.000000
     13          1           0        0.001771   -3.276836    0.000000
     14          8           0       -1.938644    1.940520    0.000000
     15          1           0       -2.838709    1.636884    0.000000
 ---------------------------------------------------------------------
                    Distance matrix (angstroms):
                    1          2          3          4          5
     1  C    0.000000
     2  C    1.381379   0.000000
     3  C    2.379703   1.388803   0.000000
     4  C    2.769918   2.417942   1.381379   0.000000
     5  C    2.379703   2.769918   2.379703   1.388803   0.000000
     6  C    1.388803   2.417942   2.769918   2.417942   1.381379
     7  H    2.153294   1.071167   2.128777   3.377331   3.840820
     8  H    3.840820   3.398524   2.153294   1.071167   2.128777
     9  H    2.128777   3.377331   3.840820   3.398524   2.153294
    10  O    3.606851   2.343661   1.369991   2.407572   3.653577
    11  H    4.339511   3.182117   1.967849   2.521948   3.895147
    12  O    1.369991   2.407572   3.653577   4.138741   3.606851
    13  H    1.967849   2.521948   3.895147   4.644709   4.339511
    14  O    3.653577   4.138741   3.606851   2.343661   1.369991
    15  H    3.895147   4.644709   4.339511   3.182117   1.967849
                    6          7          8          9         10
     6  C    0.000000
     7  H    3.398524   0.000000
     8  H    3.377331   4.272854   0.000000
     9  H    1.071167   4.272854   4.272854   0.000000
    10  O    4.138741   2.537276   2.693773   5.209125   0.000000
    11  H    4.644709   3.480225   2.405288   5.707266   0.949901
    12  O    2.343661   2.693773   5.209125   2.537276   4.750988
    13  H    3.182117   2.405288   5.707266   3.480225   4.785031
    14  O    2.407572   5.209125   2.537276   2.693773   4.750988
    15  H    2.521948   5.707266   3.480225   2.405288   5.566509
                   11         12         13         14         15
    11  H    0.000000
    12  O    5.566509   0.000000
    13  H    5.675647   0.949901   0.000000
    14  O    4.785031   4.750988   5.566509   0.000000
    15  H    5.675647   4.785031   5.675647   0.949901   0.000000
 Stoichiometry    C6H6O3
 Framework group  C3H[SGH(C6H6O3)]
 Deg. of freedom     9
 Full point group                 C3H     NOp   6
 Largest Abelian subgroup         CS      NOp   2
 Largest concise Abelian subgroup C1      NOp   1
                         Standard orientation:                         
 ---------------------------------------------------------------------
 Center     Atomic      Atomic             Coordinates (Angstroms)
 Number     Number       Type             X           Y           Z
 ---------------------------------------------------------------------
      1          6           0        0.000000    1.373922    0.000000
      2          6           0        1.206805    0.701739    0.000000
      3          6           0        1.189852   -0.686961    0.000000
      4          6           0        0.004321   -1.395993    0.000000
      5          6           0       -1.189852   -0.686961    0.000000
      6          6           0       -1.211126    0.694254    0.000000
      7          1           0        2.147371    1.214314    0.000000
      8          1           0       -0.022059   -2.466835    0.000000
      9          1           0       -2.125312    1.252521    0.000000
     10          8           0        2.410332   -1.309298    0.000000
     11          1           0        2.374191   -2.258511    0.000000
     12          8           0       -0.071280    2.742058    0.000000
     13          1           0        0.768832    3.185366    0.000000
     14          8           0       -2.339051   -1.432759    0.000000
     15          1           0       -3.143024   -0.926854    0.000000
 ---------------------------------------------------------------------
 Rotational constants (GHZ):           1.8376960           1.8376960           0.9188480
 Standard basis: 6-31G (6D, 7F)
 There are    75 symmetry adapted cartesian basis functions of A'  symmetry.
 There are    18 symmetry adapted cartesian basis functions of A"  symmetry.
 There are    75 symmetry adapted basis functions of A'  symmetry.
 There are    18 symmetry adapted basis functions of A"  symmetry.
    93 basis functions,   222 primitive gaussians,    93 cartesian basis functions
    33 alpha electrons       33 beta electrons
       nuclear repulsion energy       429.0812322903 Hartrees.
 NAtoms=   15 NActive=   15 NUniq=    5 SFac= 4.00D+00 NAtFMM=   60 NAOKFM=F Big=F
 Integral buffers will be    131072 words long.
 Raffenetti 1 integral format.
 Two-electron integral symmetry is turned on.
 One-electron integrals computed using PRISM.
 NBasis=    93 RedAO= T EigKep=  5.82D-04  NBF=    75    18
 NBsUse=    93 1.00D-06 EigRej= -1.00D+00 NBFU=    75    18
 Initial guess from the checkpoint file:  "D:\APPs\lihaibei\molecules-use\C6H3OH3.chk"
 B after Tr=     0.000000    0.000000    0.000000
         Rot=    1.000000    0.000000    0.000000   -0.000277 Ang=  -0.03 deg.
 Initial guess orbital symmetries:
       Occupied  (?A) (?A) (?B) (?B) (?A) (?A) (?A) (?A) (?B) (?B)
                 (?A) (?A) (?B) (?A) (?A) (?A) (?A) (?B) (?B) (?A)
                 (?A) (?B) (A") (?A) (?A) (E") (E") (?B) (?A) (?A)
                 (A") (E") (E")
       Virtual   (E") (E") (?A) (?A) (?B) (?B) (?A) (?A) (A") (?B)
                 (?A) (?A) (?A) (?A) (?B) (?A) (?A) (?B) (A") (?B)
                 (E") (E") (?A) (?A) (?A) (?A) (E") (E") (?B) (?B)
                 (A") (?A) (?A) (?B) (?A) (?A) (?B) (?A) (?A) (A")
                 (E") (E") (?A) (?A) (?B) (?B) (?A) (?A) (?B) (?A)
                 (?A) (?B) (?A) (?A) (?A) (?A) (?B) (?B) (?A) (?A)
 Keep R1 ints in memory in symmetry-blocked form, NReq=15042909.
 Requested convergence on RMS density matrix=1.00D-08 within 128 cycles.
 Requested convergence on MAX density matrix=1.00D-06.
 Requested convergence on             energy=1.00D-06.
 No special actions if energy rises.
 SCF Done:  E(RHF) =  -455.094175315     A.U. after    9 cycles
            NFock=  9  Conv=0.66D-08     -V/T= 1.9993
 Calling FoFJK, ICntrl=      2127 FMM=F ISym2X=1 I1Cent= 0 IOpClX= 0 NMat=1 NMatS=1 NMatT=0.
 ***** Axes restored to original set *****
 -------------------------------------------------------------------
 Center     Atomic                   Forces (Hartrees/Bohr)
 Number     Number              X              Y              Z
 -------------------------------------------------------------------
      1        6           0.000209920    0.000044537    0.000000000
      2        6           0.000122984   -0.000280490    0.000000000
      3        6          -0.000143530    0.000159527    0.000000000
      4        6           0.000181420    0.000246753    0.000000000
      5        6          -0.000066390   -0.000204064    0.000000000
      6        6          -0.000304404    0.000033738    0.000000000
      7        1          -0.000026040    0.000063894    0.000000000
      8        1          -0.000042314   -0.000054498    0.000000000
      9        1           0.000068354   -0.000009396    0.000000000
     10        8           0.000033402   -0.000086380    0.000000000
     11        1           0.000020391    0.000039795    0.000000000
     12        8          -0.000091508    0.000014263    0.000000000
     13        1           0.000024268   -0.000037556    0.000000000
     14        8           0.000058106    0.000072117    0.000000000
     15        1          -0.000044659   -0.000002239    0.000000000
 -------------------------------------------------------------------
 Cartesian Forces:  Max     0.000304404 RMS     0.000101714

 GradGradGradGradGradGradGradGradGradGradGradGradGradGradGradGradGradGrad
 Berny optimization.
 Using GEDIIS/GDIIS optimizer.
 FormGI is forming the generalized inverse of G from B-inverse, IUseBI=4.
 Internal  Forces:  Max     0.000148586 RMS     0.000052562
 Search for a local minimum.
 Step number   5 out of a maximum of   76
 All quantities printed in internal units (Hartrees-Bohrs-Radians)
 Mixed Optimization -- En-DIIS/RFO-DIIS
 Swapping is turned off.
 Update second derivatives using D2CorX and points    1    2    3    4    5
 DE= -6.84D-06 DEPred=-6.32D-06 R= 1.08D+00
 TightC=F SS=  1.41D+00  RLast= 6.93D-03 DXNew= 8.4853D-01 2.0781D-02
 Trust test= 1.08D+00 RLast= 6.93D-03 DXMaxT set to 5.05D-01
 ITU=  1  1  1  1  0
     Eigenvalues ---    0.01293   0.01293   0.01293   0.01989   0.02011
     Eigenvalues ---    0.02011   0.02154   0.02154   0.02156   0.02156
     Eigenvalues ---    0.02157   0.02157   0.13599   0.16000   0.16000
     Eigenvalues ---    0.16000   0.16000   0.17281   0.20812   0.23502
     Eigenvalues ---    0.23502   0.25000   0.25000   0.25056   0.33720
     Eigenvalues ---    0.33720   0.34075   0.36595   0.40967   0.40967
     Eigenvalues ---    0.42360   0.42360   0.43961   0.46470   0.46470
     Eigenvalues ---    0.53636   0.55473   0.55473   0.57718
 En-DIIS/RFO-DIIS/Sim-DIIS IScMMF=       -3 using points:     5    4    3
 RFO step:  Lambda=-7.26371410D-07.
 DidBck=F Rises=F RFO-DIIS coefs:    1.15206   -0.15013   -0.00193
 Iteration  1 RMS(Cart)=  0.00032253 RMS(Int)=  0.00000007
 Iteration  2 RMS(Cart)=  0.00000009 RMS(Int)=  0.00000000
 ClnCor:  largest displacement from symmetrization is 2.30D-12 for atom    13.
 Variable       Old X    -DE/DX   Delta X   Delta X   Delta X     New X
                                 (Linear)    (Quad)   (Total)
    R1        2.61043   0.00002  -0.00039   0.00019  -0.00020   2.61023
    R2        2.62446   0.00015   0.00030   0.00023   0.00053   2.62499
    R3        2.58891   0.00004   0.00017  -0.00010   0.00007   2.58898
    R4        2.62446   0.00015   0.00030   0.00023   0.00053   2.62499
    R5        2.02421  -0.00006   0.00003  -0.00016  -0.00013   2.02408
    R6        2.61043   0.00002  -0.00039   0.00019  -0.00020   2.61023
    R7        2.58891   0.00004   0.00017  -0.00010   0.00007   2.58898
    R8        2.62446   0.00015   0.00030   0.00023   0.00053   2.62499
    R9        2.02421  -0.00006   0.00003  -0.00016  -0.00013   2.02408
   R10        2.61043   0.00002  -0.00039   0.00019  -0.00020   2.61023
   R11        2.58891   0.00004   0.00017  -0.00010   0.00007   2.58898
   R12        2.02421  -0.00006   0.00003  -0.00016  -0.00013   2.02408
   R13        1.79505   0.00004   0.00005   0.00002   0.00007   1.79513
   R14        1.79505   0.00004   0.00005   0.00002   0.00007   1.79513
   R15        1.79505   0.00004   0.00005   0.00002   0.00007   1.79513
    A1        2.12200   0.00007  -0.00009   0.00035   0.00026   2.12226
    A2        2.13105   0.00005   0.00015   0.00019   0.00033   2.13138
    A3        2.03013  -0.00012  -0.00006  -0.00053  -0.00059   2.02954
    A4        2.06679  -0.00007   0.00009  -0.00035  -0.00026   2.06653
    A5        2.13443   0.00006   0.00013   0.00031   0.00044   2.13486
    A6        2.08197   0.00000  -0.00021   0.00003  -0.00018   2.08180
    A7        2.12200   0.00007  -0.00009   0.00035   0.00026   2.12226
    A8        2.03013  -0.00012  -0.00006  -0.00053  -0.00059   2.02954
    A9        2.13105   0.00005   0.00015   0.00019   0.00033   2.13138
   A10        2.06679  -0.00007   0.00009  -0.00035  -0.00026   2.06653
   A11        2.13443   0.00006   0.00013   0.00031   0.00044   2.13486
   A12        2.08197   0.00000  -0.00021   0.00003  -0.00018   2.08180
   A13        2.12200   0.00007  -0.00009   0.00035   0.00026   2.12226
   A14        2.03013  -0.00012  -0.00006  -0.00053  -0.00059   2.02954
   A15        2.13105   0.00005   0.00015   0.00019   0.00033   2.13138
   A16        2.06679  -0.00007   0.00009  -0.00035  -0.00026   2.06653
   A17        2.08197   0.00000  -0.00021   0.00003  -0.00018   2.08180
   A18        2.13443   0.00006   0.00013   0.00031   0.00044   2.13486
   A19        2.00429   0.00002  -0.00010   0.00012   0.00003   2.00431
   A20        2.00429   0.00002  -0.00010   0.00012   0.00003   2.00431
   A21        2.00429   0.00002  -0.00010   0.00012   0.00003   2.00431
    D1        0.00000   0.00000   0.00000   0.00000   0.00000   0.00000
    D2        3.14159   0.00000   0.00000   0.00000   0.00000   3.14159
    D3        3.14159   0.00000   0.00000   0.00000   0.00000   3.14159
    D4        0.00000   0.00000   0.00000   0.00000   0.00000   0.00000
    D5        0.00000   0.00000   0.00000   0.00000   0.00000   0.00000
    D6        3.14159   0.00000   0.00000   0.00000   0.00000   3.14159
    D7        3.14159   0.00000   0.00000   0.00000   0.00000   3.14159
    D8        0.00000   0.00000   0.00000   0.00000   0.00000   0.00000
    D9        0.00000   0.00000   0.00000   0.00000   0.00000   0.00000
   D10        3.14159   0.00000   0.00000   0.00000   0.00000   3.14159
   D11        0.00000   0.00000   0.00000   0.00000   0.00000   0.00000
   D12        3.14159   0.00000   0.00000   0.00000   0.00000   3.14159
   D13        3.14159   0.00000   0.00000   0.00000   0.00000   3.14159
   D14        0.00000   0.00000   0.00000   0.00000   0.00000   0.00000
   D15        0.00000   0.00000   0.00000   0.00000   0.00000   0.00000
   D16        3.14159   0.00000   0.00000   0.00000   0.00000   3.14159
   D17        3.14159   0.00000   0.00000   0.00000   0.00000   3.14159
   D18        0.00000   0.00000   0.00000   0.00000   0.00000   0.00000
   D19        3.14159   0.00000   0.00000   0.00000   0.00000   3.14159
   D20        0.00000   0.00000   0.00000   0.00000   0.00000   0.00000
   D21        0.00000   0.00000   0.00000   0.00000   0.00000   0.00000
   D22        3.14159   0.00000   0.00000   0.00000   0.00000   3.14159
   D23        3.14159   0.00000   0.00000   0.00000   0.00000   3.14159
   D24        0.00000   0.00000   0.00000   0.00000   0.00000   0.00000
   D25        0.00000   0.00000   0.00000   0.00000   0.00000   0.00000
   D26        3.14159   0.00000   0.00000   0.00000   0.00000   3.14159
   D27        3.14159   0.00000   0.00000   0.00000   0.00000   3.14159
   D28        0.00000   0.00000   0.00000   0.00000   0.00000   0.00000
   D29        3.14159   0.00000   0.00000   0.00000   0.00000   3.14159
   D30        0.00000   0.00000   0.00000   0.00000   0.00000   0.00000
         Item               Value     Threshold  Converged?
 Maximum Force            0.000149     0.000450     YES
 RMS     Force            0.000053     0.000300     YES
 Maximum Displacement     0.001002     0.001800     YES
 RMS     Displacement     0.000323     0.001200     YES
 Predicted change in Energy=-3.631848D-07
 Optimization completed.
    -- Stationary point found.
                           ----------------------------
                           !   Optimized Parameters   !
                           ! (Angstroms and Degrees)  !
 --------------------------                            --------------------------
 ! Name  Definition              Value          Derivative Info.                !
 --------------------------------------------------------------------------------
 ! R1    R(1,2)                  1.3814         -DE/DX =    0.0                 !
 ! R2    R(1,6)                  1.3888         -DE/DX =    0.0001              !
 ! R3    R(1,12)                 1.37           -DE/DX =    0.0                 !
 ! R4    R(2,3)                  1.3888         -DE/DX =    0.0001              !
 ! R5    R(2,7)                  1.0712         -DE/DX =   -0.0001              !
 ! R6    R(3,4)                  1.3814         -DE/DX =    0.0                 !
 ! R7    R(3,10)                 1.37           -DE/DX =    0.0                 !
 ! R8    R(4,5)                  1.3888         -DE/DX =    0.0001              !
 ! R9    R(4,8)                  1.0712         -DE/DX =   -0.0001              !
 ! R10   R(5,6)                  1.3814         -DE/DX =    0.0                 !
 ! R11   R(5,14)                 1.37           -DE/DX =    0.0                 !
 ! R12   R(6,9)                  1.0712         -DE/DX =   -0.0001              !
 ! R13   R(10,11)                0.9499         -DE/DX =    0.0                 !
 ! R14   R(12,13)                0.9499         -DE/DX =    0.0                 !
 ! R15   R(14,15)                0.9499         -DE/DX =    0.0                 !
 ! A1    A(2,1,6)              121.5819         -DE/DX =    0.0001              !
 ! A2    A(2,1,12)             122.1            -DE/DX =    0.0001              !
 ! A3    A(6,1,12)             116.3181         -DE/DX =   -0.0001              !
 ! A4    A(1,2,3)              118.4181         -DE/DX =   -0.0001              !
 ! A5    A(1,2,7)              122.2936         -DE/DX =    0.0001              !
 ! A6    A(3,2,7)              119.2883         -DE/DX =    0.0                 !
 ! A7    A(2,3,4)              121.5819         -DE/DX =    0.0001              !
 ! A8    A(2,3,10)             116.3181         -DE/DX =   -0.0001              !
 ! A9    A(4,3,10)             122.1            -DE/DX =    0.0001              !
 ! A10   A(3,4,5)              118.4181         -DE/DX =   -0.0001              !
 ! A11   A(3,4,8)              122.2936         -DE/DX =    0.0001              !
 ! A12   A(5,4,8)              119.2883         -DE/DX =    0.0                 !
 ! A13   A(4,5,6)              121.5819         -DE/DX =    0.0001              !
 ! A14   A(4,5,14)             116.3181         -DE/DX =   -0.0001              !
 ! A15   A(6,5,14)             122.1            -DE/DX =    0.0001              !
 ! A16   A(1,6,5)              118.4181         -DE/DX =   -0.0001              !
 ! A17   A(1,6,9)              119.2883         -DE/DX =    0.0                 !
 ! A18   A(5,6,9)              122.2936         -DE/DX =    0.0001              !
 ! A19   A(3,10,11)            114.8371         -DE/DX =    0.0                 !
 ! A20   A(1,12,13)            114.8371         -DE/DX =    0.0                 !
 ! A21   A(5,14,15)            114.8371         -DE/DX =    0.0                 !
 ! D1    D(6,1,2,3)              0.0            -DE/DX =    0.0                 !
 ! D2    D(6,1,2,7)            180.0            -DE/DX =    0.0                 !
 ! D3    D(12,1,2,3)           180.0            -DE/DX =    0.0                 !
 ! D4    D(12,1,2,7)             0.0            -DE/DX =    0.0                 !
 ! D5    D(2,1,6,5)              0.0            -DE/DX =    0.0                 !
 ! D6    D(2,1,6,9)            180.0            -DE/DX =    0.0                 !
 ! D7    D(12,1,6,5)           180.0            -DE/DX =    0.0                 !
 ! D8    D(12,1,6,9)             0.0            -DE/DX =    0.0                 !
 ! D9    D(2,1,12,13)            0.0            -DE/DX =    0.0                 !
 ! D10   D(6,1,12,13)          180.0            -DE/DX =    0.0                 !
 ! D11   D(1,2,3,4)              0.0            -DE/DX =    0.0                 !
 ! D12   D(1,2,3,10)           180.0            -DE/DX =    0.0                 !
 ! D13   D(7,2,3,4)            180.0            -DE/DX =    0.0                 !
 ! D14   D(7,2,3,10)             0.0            -DE/DX =    0.0                 !
 ! D15   D(2,3,4,5)              0.0            -DE/DX =    0.0                 !
 ! D16   D(2,3,4,8)            180.0            -DE/DX =    0.0                 !
 ! D17   D(10,3,4,5)           180.0            -DE/DX =    0.0                 !
 ! D18   D(10,3,4,8)             0.0            -DE/DX =    0.0                 !
 ! D19   D(2,3,10,11)          180.0            -DE/DX =    0.0                 !
 ! D20   D(4,3,10,11)            0.0            -DE/DX =    0.0                 !
 ! D21   D(3,4,5,6)              0.0            -DE/DX =    0.0                 !
 ! D22   D(3,4,5,14)           180.0            -DE/DX =    0.0                 !
 ! D23   D(8,4,5,6)            180.0            -DE/DX =    0.0                 !
 ! D24   D(8,4,5,14)             0.0            -DE/DX =    0.0                 !
 ! D25   D(4,5,6,1)              0.0            -DE/DX =    0.0                 !
 ! D26   D(4,5,6,9)            180.0            -DE/DX =    0.0                 !
 ! D27   D(14,5,6,1)           180.0            -DE/DX =    0.0                 !
 ! D28   D(14,5,6,9)             0.0            -DE/DX =    0.0                 !
 ! D29   D(4,5,14,15)          180.0            -DE/DX =    0.0                 !
 ! D30   D(6,5,14,15)            0.0            -DE/DX =    0.0                 !
 --------------------------------------------------------------------------------
 GradGradGradGradGradGradGradGradGradGradGradGradGradGradGradGradGradGrad

                          Input orientation:                          
 ---------------------------------------------------------------------
 Center     Atomic      Atomic             Coordinates (Angstroms)
 Number     Number       Type             X           Y           Z
 ---------------------------------------------------------------------
      1          6           0       -0.321636   -1.335744    0.000000
      2          6           0        1.008993   -0.964753    0.000000
      3          6           0        1.317606    0.389327    0.000000
      4          6           0        0.331004    1.356190    0.000000
      5          6           0       -0.995970    0.946417    0.000000
      6          6           0       -1.339997   -0.391437    0.000000
      7          1           0        1.803428   -1.683273    0.000000
      8          1           0        0.556043    2.403451    0.000000
      9          1           0       -2.359471   -0.720178    0.000000
     10          8           0        2.649862    0.708655    0.000000
     11          1           0        2.836938    1.639952    0.000000
     12          8           0       -0.711218   -2.649175    0.000000
     13          1           0        0.001771   -3.276836    0.000000
     14          8           0       -1.938644    1.940520    0.000000
     15          1           0       -2.838709    1.636884    0.000000
 ---------------------------------------------------------------------
                    Distance matrix (angstroms):
                    1          2          3          4          5
     1  C    0.000000
     2  C    1.381379   0.000000
     3  C    2.379703   1.388803   0.000000
     4  C    2.769918   2.417942   1.381379   0.000000
     5  C    2.379703   2.769918   2.379703   1.388803   0.000000
     6  C    1.388803   2.417942   2.769918   2.417942   1.381379
     7  H    2.153294   1.071167   2.128777   3.377331   3.840820
     8  H    3.840820   3.398524   2.153294   1.071167   2.128777
     9  H    2.128777   3.377331   3.840820   3.398524   2.153294
    10  O    3.606851   2.343661   1.369991   2.407572   3.653577
    11  H    4.339511   3.182117   1.967849   2.521948   3.895147
    12  O    1.369991   2.407572   3.653577   4.138741   3.606851
    13  H    1.967849   2.521948   3.895147   4.644709   4.339511
    14  O    3.653577   4.138741   3.606851   2.343661   1.369991
    15  H    3.895147   4.644709   4.339511   3.182117   1.967849
                    6          7          8          9         10
     6  C    0.000000
     7  H    3.398524   0.000000
     8  H    3.377331   4.272854   0.000000
     9  H    1.071167   4.272854   4.272854   0.000000
    10  O    4.138741   2.537276   2.693773   5.209125   0.000000
    11  H    4.644709   3.480225   2.405288   5.707266   0.949901
    12  O    2.343661   2.693773   5.209125   2.537276   4.750988
    13  H    3.182117   2.405288   5.707266   3.480225   4.785031
    14  O    2.407572   5.209125   2.537276   2.693773   4.750988
    15  H    2.521948   5.707266   3.480225   2.405288   5.566509
                   11         12         13         14         15
    11  H    0.000000
    12  O    5.566509   0.000000
    13  H    5.675647   0.949901   0.000000
    14  O    4.785031   4.750988   5.566509   0.000000
    15  H    5.675647   4.785031   5.675647   0.949901   0.000000
 Stoichiometry    C6H6O3
 Framework group  C3H[SGH(C6H6O3)]
 Deg. of freedom     9
 Full point group                 C3H     NOp   6
 Largest Abelian subgroup         CS      NOp   2
 Largest concise Abelian subgroup C1      NOp   1
                         Standard orientation:                         
 ---------------------------------------------------------------------
 Center     Atomic      Atomic             Coordinates (Angstroms)
 Number     Number       Type             X           Y           Z
 ---------------------------------------------------------------------
      1          6           0        0.000000    1.373922    0.000000
      2          6           0        1.206805    0.701739    0.000000
      3          6           0        1.189852   -0.686961    0.000000
      4          6           0        0.004321   -1.395993    0.000000
      5          6           0       -1.189852   -0.686961    0.000000
      6          6           0       -1.211126    0.694254    0.000000
      7          1           0        2.147371    1.214314    0.000000
      8          1           0       -0.022059   -2.466835    0.000000
      9          1           0       -2.125312    1.252521    0.000000
     10          8           0        2.410332   -1.309298    0.000000
     11          1           0        2.374191   -2.258511    0.000000
     12          8           0       -0.071280    2.742058    0.000000
     13          1           0        0.768832    3.185366    0.000000
     14          8           0       -2.339051   -1.432759    0.000000
     15          1           0       -3.143024   -0.926854    0.000000
 ---------------------------------------------------------------------
 Rotational constants (GHZ):           1.8376960           1.8376960           0.9188480

 **********************************************************************

            Population analysis using the SCF Density.

 **********************************************************************

 Orbital symmetries:
       Occupied  (?A) (?A) (?B) (?B) (?A) (?A) (?A) (?A) (?B) (?B)
                 (?A) (?A) (?B) (?A) (?A) (?A) (?A) (?B) (?B) (?A)
                 (?A) (?B) (A") (?A) (?A) (E") (E") (?B) (?A) (?A)
                 (A") (E") (E")
       Virtual   (E") (E") (?A) (?A) (?B) (?B) (?A) (?A) (A") (?B)
                 (?A) (?A) (?A) (?A) (?B) (?A) (?A) (?B) (A") (?B)
                 (E") (E") (?A) (?A) (?A) (?A) (E") (E") (?B) (?B)
                 (A") (?A) (?A) (?B) (?A) (?A) (?B) (?A) (?A) (A")
                 (E") (E") (?A) (?A) (?B) (?B) (?A) (?A) (?B) (?A)
                 (?A) (?B) (?A) (?A) (?A) (?A) (?B) (?B) (?A) (?A)
 Unable to determine electronic state:  an orbital has unidentified symmetry.
 Alpha  occ. eigenvalues --  -20.59432 -20.59432 -20.59431 -11.32816 -11.32816
 Alpha  occ. eigenvalues --  -11.32816 -11.23226 -11.23226 -11.23222  -1.42074
 Alpha  occ. eigenvalues --   -1.41623  -1.41623  -1.16326  -1.02788  -1.02788
 Alpha  occ. eigenvalues --   -0.86405  -0.86405  -0.79282  -0.70653  -0.68769
 Alpha  occ. eigenvalues --   -0.68769  -0.68294  -0.61717  -0.58706  -0.58706
 Alpha  occ. eigenvalues --   -0.57811  -0.57811  -0.53230  -0.52791  -0.52791
 Alpha  occ. eigenvalues --   -0.45045  -0.32559  -0.32559
 Alpha virt. eigenvalues --    0.15592   0.15592   0.21604   0.21604   0.21774
 Alpha virt. eigenvalues --    0.25845   0.31319   0.31319   0.37586   0.41853
 Alpha virt. eigenvalues --    0.45926   0.45926   0.48585   0.48585   0.62969
 Alpha virt. eigenvalues --    0.63850   0.63850   0.68503   0.73039   0.75630
 Alpha virt. eigenvalues --    0.83026   0.83026   0.83965   0.83965   0.88319
 Alpha virt. eigenvalues --    0.88319   0.91217   0.91217   0.93666   0.97446
 Alpha virt. eigenvalues --    1.01273   1.04282   1.04282   1.07438   1.15336
 Alpha virt. eigenvalues --    1.15336   1.17842   1.19275   1.19275   1.20374
 Alpha virt. eigenvalues --    1.25815   1.25815   1.30162   1.30162   1.30255
 Alpha virt. eigenvalues --    1.31541   1.37254   1.37254   1.42153   1.51275
 Alpha virt. eigenvalues --    1.51275   1.61251   1.63227   1.63227   1.78054
 Alpha virt. eigenvalues --    1.78054   1.94818   2.27201   2.33424   2.33424
          Condensed to atoms (all electrons):
               1          2          3          4          5          6
     1  C    4.640294   0.477085  -0.034027  -0.001251  -0.034027   0.448952
     2  C    0.477085   5.305897   0.448952  -0.119554  -0.001251  -0.119554
     3  C   -0.034027   0.448952   4.640294   0.477085  -0.034027  -0.001251
     4  C   -0.001251  -0.119554   0.477085   5.305897   0.448952  -0.119554
     5  C   -0.034027  -0.001251  -0.034027   0.448952   4.640294   0.477085
     6  C    0.448952  -0.119554  -0.001251  -0.119554   0.477085   5.305897
     7  H   -0.035840   0.374228  -0.013856   0.003415   0.000010   0.002091
     8  H    0.000010   0.002091  -0.035840   0.374228  -0.013856   0.003415
     9  H   -0.013856   0.003415   0.000010   0.002091  -0.035840   0.374228
    10  O    0.000954  -0.051827   0.186849  -0.079786   0.005088   0.000518
    11  H   -0.000127   0.005774  -0.033510  -0.001381   0.000541   0.000018
    12  O    0.186849  -0.079786   0.005088   0.000518   0.000954  -0.051827
    13  H   -0.033510  -0.001381   0.000541   0.000018  -0.000127   0.005774
    14  O    0.005088   0.000518   0.000954  -0.051827   0.186849  -0.079786
    15  H    0.000541   0.000018  -0.000127   0.005774  -0.033510  -0.001381
               7          8          9         10         11         12
     1  C   -0.035840   0.000010  -0.013856   0.000954  -0.000127   0.186849
     2  C    0.374228   0.002091   0.003415  -0.051827   0.005774  -0.079786
     3  C   -0.013856  -0.035840   0.000010   0.186849  -0.033510   0.005088
     4  C    0.003415   0.374228   0.002091  -0.079786  -0.001381   0.000518
     5  C    0.000010  -0.013856  -0.035840   0.005088   0.000541   0.000954
     6  C    0.002091   0.003415   0.374228   0.000518   0.000018  -0.051827
     7  H    0.451182  -0.000077  -0.000077  -0.000913  -0.000075  -0.004000
     8  H   -0.000077   0.451182  -0.000077  -0.004000   0.002033   0.000001
     9  H   -0.000077  -0.000077   0.451182   0.000001   0.000000  -0.000913
    10  O   -0.000913  -0.004000   0.000001   8.463035   0.272318  -0.000013
    11  H   -0.000075   0.002033   0.000000   0.272318   0.332323   0.000001
    12  O   -0.004000   0.000001  -0.000913  -0.000013   0.000001   8.463035
    13  H    0.002033   0.000000  -0.000075  -0.000003   0.000000   0.272318
    14  O    0.000001  -0.000913  -0.004000  -0.000013  -0.000003  -0.000013
    15  H    0.000000  -0.000075   0.002033   0.000001   0.000000  -0.000003
              13         14         15
     1  C   -0.033510   0.005088   0.000541
     2  C   -0.001381   0.000518   0.000018
     3  C    0.000541   0.000954  -0.000127
     4  C    0.000018  -0.051827   0.005774
     5  C   -0.000127   0.186849  -0.033510
     6  C    0.005774  -0.079786  -0.001381
     7  H    0.002033   0.000001   0.000000
     8  H    0.000000  -0.000913  -0.000075
     9  H   -0.000075  -0.004000   0.002033
    10  O   -0.000003  -0.000013   0.000001
    11  H    0.000000  -0.000003   0.000000
    12  O    0.272318  -0.000013  -0.000003
    13  H    0.332323   0.000001   0.000000
    14  O    0.000001   8.463035   0.272318
    15  H    0.000000   0.272318   0.332323
 Mulliken charges:
               1
     1  C    0.392866
     2  C   -0.244624
     3  C    0.392866
     4  C   -0.244624
     5  C    0.392866
     6  C   -0.244624
     7  H    0.221877
     8  H    0.221877
     9  H    0.221877
    10  O   -0.792210
    11  H    0.422090
    12  O   -0.792210
    13  H    0.422090
    14  O   -0.792210
    15  H    0.422090
 Sum of Mulliken charges =   0.00000
 Mulliken charges with hydrogens summed into heavy atoms:
               1
     1  C    0.392866
     2  C   -0.022747
     3  C    0.392866
     4  C   -0.022747
     5  C    0.392866
     6  C   -0.022747
    10  O   -0.370120
    12  O   -0.370120
    14  O   -0.370120
 Electronic spatial extent (au):  <R**2>=           1183.4309
 Charge=              0.0000 electrons
 Dipole moment (field-independent basis, Debye):
    X=              0.0000    Y=              0.0000    Z=              0.0000  Tot=              0.0000
 Quadrupole moment (field-independent basis, Debye-Ang):
   XX=            -47.3277   YY=            -47.3277   ZZ=            -55.6488
   XY=              0.0000   XZ=              0.0000   YZ=              0.0000
 Traceless Quadrupole moment (field-independent basis, Debye-Ang):
   XX=              2.7737   YY=              2.7737   ZZ=             -5.5474
   XY=              0.0000   XZ=              0.0000   YZ=              0.0000
 Octapole moment (field-independent basis, Debye-Ang**2):
  XXX=            -46.5339  YYY=             -9.1208  ZZZ=              0.0000  XYY=             46.5339
  XXY=              9.1208  XXZ=              0.0000  XZZ=              0.0000  YZZ=              0.0000
  YYZ=              0.0000  XYZ=              0.0000
 Hexadecapole moment (field-independent basis, Debye-Ang**3):
 XXXX=           -603.4895 YYYY=           -603.4895 ZZZZ=            -53.1992 XXXY=              0.0000
 XXXZ=              0.0000 YYYX=              0.0000 YYYZ=              0.0000 ZZZX=              0.0000
 ZZZY=              0.0000 XXYY=           -201.1632 XXZZ=           -129.9019 YYZZ=           -129.9019
 XXYZ=              0.0000 YYXZ=              0.0000 ZZXY=              0.0000
 N-N= 4.290812322903D+02 E-N=-1.928025514256D+03  KE= 4.553935559796D+02
 Symmetry A'   KE= 4.354945221527D+02
 Symmetry A"   KE= 1.989903382687D+01
 1|1|UNPC-WIN10-2T0259|FOpt|RHF|6-31G|C6H6O3|SDDX|16-Apr-2026|0||# opt 
 hf/6-31g geom=connectivity||Title Card Required||0,1|C,-0.3216364623,-
 1.3357440315,0.|C,1.0089928716,-0.9647529638,0.|C,1.3176064927,0.38932
 66666,0.|C,0.3310041365,1.3561899388,0.|C,-0.9959700327,0.9464173595,0
 .|C,-1.3399970103,-0.3914369805,0.|H,1.803428397,-1.683272711,0.|H,0.5
 56042728,2.4034511592,0.|H,-2.3594711273,-0.7201784536,0.|O,2.64986217
 04,0.7086549583,0.|H,2.8369376564,1.6399520136,0.|O,-0.7112178884,-2.6
 491754386,0.|H,0.001771277,-3.2768360896,0.|O,-1.9386442843,1.94052047
 48,0.|H,-2.8387089357,1.6368840705,0.||Version=EM64W-G16RevB.01|HF=-45
 5.0941753|RMSD=6.619e-009|RMSF=1.017e-004|Dipole=0.,0.,0.|Quadrupole=2
 .0621655,2.0621655,-4.1243309,0.,0.,0.|PG=C03H [SGH(C6H6O3)]||@


 The most important thing in communication is to hear what isn't being said.
 -- Peter F. Drucker
 Job cpu time:       0 days  0 hours  0 minutes 16.0 seconds.
 Elapsed time:       0 days  0 hours  0 minutes 14.1 seconds.
 File lengths (MBytes):  RWF=     10 Int=      0 D2E=      0 Chk=      2 Scr=      1
 Normal termination of Gaussian 16 at Thu Apr 16 10:46:31 2026.
