 Entering Link 1 = C:\G16W\l1.exe PID=      7844.
  
 Copyright (c) 1988-2017, Gaussian, Inc.  All Rights Reserved.
  
 This is part of the Gaussian(R) 16 program.  It is based on
 the Gaussian(R) 09 system (copyright 2009, Gaussian, Inc.),
 the Gaussian(R) 03 system (copyright 2003, Gaussian, Inc.),
 the Gaussian(R) 98 system (copyright 1998, Gaussian, Inc.),
 the Gaussian(R) 94 system (copyright 1995, Gaussian, Inc.),
 the Gaussian 92(TM) system (copyright 1992, Gaussian, Inc.),
 the Gaussian 90(TM) system (copyright 1990, Gaussian, Inc.),
 the Gaussian 88(TM) system (copyright 1988, Gaussian, Inc.),
 the Gaussian 86(TM) system (copyright 1986, Carnegie Mellon
 University), and the Gaussian 82(TM) system (copyright 1983,
 Carnegie Mellon University). Gaussian is a federally registered
 trademark of Gaussian, Inc.
  
 This software contains proprietary and confidential information,
 including trade secrets, belonging to Gaussian, Inc.
  
 This software is provided under written license and may be
 used, copied, transmitted, or stored only in accord with that
 written license.
  
 The following legend is applicable only to US Government
 contracts under FAR:
  
                    RESTRICTED RIGHTS LEGEND
  
 Use, reproduction and disclosure by the US Government is
 subject to restrictions as set forth in subparagraphs (a)
 and (c) of the Commercial Computer Software - Restricted
 Rights clause in FAR 52.227-19.
  
 Gaussian, Inc.
 340 Quinnipiac St., Bldg. 40, Wallingford CT 06492
  
  
 ---------------------------------------------------------------
 Warning -- This program may not be used in any manner that
 competes with the business of Gaussian, Inc. or will provide
 assistance to any competitor of Gaussian, Inc.  The licensee
 of this program is prohibited from giving any competitor of
 Gaussian, Inc. access to this program.  By using this program,
 the user acknowledges that Gaussian, Inc. is engaged in the
 business of creating and licensing software in the field of
 computational chemistry and represents and warrants to the
 licensee that it is not a competitor of Gaussian, Inc. and that
 it will not use this program in any manner prohibited above.
 ---------------------------------------------------------------
  

 Cite this work as:
 Gaussian 16, Revision B.01,
 M. J. Frisch, G. W. Trucks, H. B. Schlegel, G. E. Scuseria, 
 M. A. Robb, J. R. Cheeseman, G. Scalmani, V. Barone, 
 G. A. Petersson, H. Nakatsuji, X. Li, M. Caricato, A. V. Marenich, 
 J. Bloino, B. G. Janesko, R. Gomperts, B. Mennucci, H. P. Hratchian, 
 J. V. Ortiz, A. F. Izmaylov, J. L. Sonnenberg, D. Williams-Young, 
 F. Ding, F. Lipparini, F. Egidi, J. Goings, B. Peng, A. Petrone, 
 T. Henderson, D. Ranasinghe, V. G. Zakrzewski, J. Gao, N. Rega, 
 G. Zheng, W. Liang, M. Hada, M. Ehara, K. Toyota, R. Fukuda, 
 J. Hasegawa, M. Ishida, T. Nakajima, Y. Honda, O. Kitao, H. Nakai, 
 T. Vreven, K. Throssell, J. A. Montgomery, Jr., J. E. Peralta, 
 F. Ogliaro, M. J. Bearpark, J. J. Heyd, E. N. Brothers, K. N. Kudin, 
 V. N. Staroverov, T. A. Keith, R. Kobayashi, J. Normand, 
 K. Raghavachari, A. P. Rendell, J. C. Burant, S. S. Iyengar, 
 J. Tomasi, M. Cossi, J. M. Millam, M. Klene, C. Adamo, R. Cammi, 
 J. W. Ochterski, R. L. Martin, K. Morokuma, O. Farkas, 
 J. B. Foresman, and D. J. Fox, Gaussian, Inc., Wallingford CT, 2016.
 
 ******************************************
 Gaussian 16:  EM64W-G16RevB.01 16-Dec-2017
                16-Apr-2026 
 ******************************************
 %chk=D:\APPs\lihaibei\molecules-use\C6H6.chk
 --------------------------------
 # opt hf/6-31g geom=connectivity
 --------------------------------
 1/18=20,19=15,38=1,57=2/1,3;
 2/9=110,12=2,17=6,18=5,40=1/2;
 3/5=1,6=6,11=9,25=1,30=1,71=1/1,2,3;
 4//1;
 5/5=2,38=5/2;
 6/7=2,8=2,9=2,10=2,28=1/1;
 7//1,2,3,16;
 1/18=20,19=15/3(2);
 2/9=110/2;
 99//99;
 2/9=110/2;
 3/5=1,6=6,11=9,25=1,30=1,71=1/1,2,3;
 4/5=5,16=3,69=1/1;
 5/5=2,38=5/2;
 7//1,2,3,16;
 1/18=20,19=15/3(-5);
 2/9=110/2;
 6/7=2,8=2,9=2,10=2,19=2,28=1/1;
 99/9=1/99;
 -------------------
 Title Card Required
 -------------------
 Symbolic Z-matrix:
 Charge =  0 Multiplicity = 1
 C                     0.        1.39499   0. 
 C                    -1.2081    0.6975    0. 
 C                    -1.2081   -0.6975    0. 
 C                     0.       -1.39499   0. 
 C                     1.2081   -0.6975    0. 
 C                     1.2081    0.6975    0. 
 H                     0.        2.4946    0. 
 H                    -2.16039   1.2473    0. 
 H                    -2.16039  -1.2473    0. 
 H                     0.       -2.4946    0. 
 H                     2.16039  -1.2473    0. 
 H                     2.16039   1.2473    0. 
 

 GradGradGradGradGradGradGradGradGradGradGradGradGradGradGradGradGradGrad
 Berny optimization.
 Initialization pass.
                           ----------------------------
                           !    Initial Parameters    !
                           ! (Angstroms and Degrees)  !
 --------------------------                            --------------------------
 ! Name  Definition              Value          Derivative Info.                !
 --------------------------------------------------------------------------------
 ! R1    R(1,2)                  1.395          estimate D2E/DX2                !
 ! R2    R(1,6)                  1.395          estimate D2E/DX2                !
 ! R3    R(1,7)                  1.0996         estimate D2E/DX2                !
 ! R4    R(2,3)                  1.395          estimate D2E/DX2                !
 ! R5    R(2,8)                  1.0996         estimate D2E/DX2                !
 ! R6    R(3,4)                  1.395          estimate D2E/DX2                !
 ! R7    R(3,9)                  1.0996         estimate D2E/DX2                !
 ! R8    R(4,5)                  1.395          estimate D2E/DX2                !
 ! R9    R(4,10)                 1.0996         estimate D2E/DX2                !
 ! R10   R(5,6)                  1.395          estimate D2E/DX2                !
 ! R11   R(5,11)                 1.0996         estimate D2E/DX2                !
 ! R12   R(6,12)                 1.0996         estimate D2E/DX2                !
 ! A1    A(2,1,6)              120.0            estimate D2E/DX2                !
 ! A2    A(2,1,7)              120.0            estimate D2E/DX2                !
 ! A3    A(6,1,7)              120.0            estimate D2E/DX2                !
 ! A4    A(1,2,3)              120.0            estimate D2E/DX2                !
 ! A5    A(1,2,8)              120.0            estimate D2E/DX2                !
 ! A6    A(3,2,8)              120.0            estimate D2E/DX2                !
 ! A7    A(2,3,4)              120.0            estimate D2E/DX2                !
 ! A8    A(2,3,9)              120.0            estimate D2E/DX2                !
 ! A9    A(4,3,9)              120.0            estimate D2E/DX2                !
 ! A10   A(3,4,5)              120.0            estimate D2E/DX2                !
 ! A11   A(3,4,10)             120.0            estimate D2E/DX2                !
 ! A12   A(5,4,10)             120.0            estimate D2E/DX2                !
 ! A13   A(4,5,6)              120.0            estimate D2E/DX2                !
 ! A14   A(4,5,11)             120.0            estimate D2E/DX2                !
 ! A15   A(6,5,11)             120.0            estimate D2E/DX2                !
 ! A16   A(1,6,5)              120.0            estimate D2E/DX2                !
 ! A17   A(1,6,12)             120.0            estimate D2E/DX2                !
 ! A18   A(5,6,12)             120.0            estimate D2E/DX2                !
 ! D1    D(6,1,2,3)              0.0            estimate D2E/DX2                !
 ! D2    D(6,1,2,8)            180.0            estimate D2E/DX2                !
 ! D3    D(7,1,2,3)            180.0            estimate D2E/DX2                !
 ! D4    D(7,1,2,8)              0.0            estimate D2E/DX2                !
 ! D5    D(2,1,6,5)              0.0            estimate D2E/DX2                !
 ! D6    D(2,1,6,12)           180.0            estimate D2E/DX2                !
 ! D7    D(7,1,6,5)            180.0            estimate D2E/DX2                !
 ! D8    D(7,1,6,12)             0.0            estimate D2E/DX2                !
 ! D9    D(1,2,3,4)              0.0            estimate D2E/DX2                !
 ! D10   D(1,2,3,9)            180.0            estimate D2E/DX2                !
 ! D11   D(8,2,3,4)            180.0            estimate D2E/DX2                !
 ! D12   D(8,2,3,9)              0.0            estimate D2E/DX2                !
 ! D13   D(2,3,4,5)              0.0            estimate D2E/DX2                !
 ! D14   D(2,3,4,10)           180.0            estimate D2E/DX2                !
 ! D15   D(9,3,4,5)            180.0            estimate D2E/DX2                !
 ! D16   D(9,3,4,10)             0.0            estimate D2E/DX2                !
 ! D17   D(3,4,5,6)              0.0            estimate D2E/DX2                !
 ! D18   D(3,4,5,11)           180.0            estimate D2E/DX2                !
 ! D19   D(10,4,5,6)           180.0            estimate D2E/DX2                !
 ! D20   D(10,4,5,11)            0.0            estimate D2E/DX2                !
 ! D21   D(4,5,6,1)              0.0            estimate D2E/DX2                !
 ! D22   D(4,5,6,12)           180.0            estimate D2E/DX2                !
 ! D23   D(11,5,6,1)           180.0            estimate D2E/DX2                !
 ! D24   D(11,5,6,12)            0.0            estimate D2E/DX2                !
 --------------------------------------------------------------------------------
 Trust Radius=3.00D-01 FncErr=1.00D-07 GrdErr=1.00D-07 EigMax=2.50D+02 EigMin=1.00D-04
 Number of steps in this run=     64 maximum allowed number of steps=    100.
 GradGradGradGradGradGradGradGradGradGradGradGradGradGradGradGradGradGrad

                          Input orientation:                          
 ---------------------------------------------------------------------
 Center     Atomic      Atomic             Coordinates (Angstroms)
 Number     Number       Type             X           Y           Z
 ---------------------------------------------------------------------
      1          6           0        0.000000    1.394991    0.000000
      2          6           0       -1.208097    0.697495    0.000000
      3          6           0       -1.208097   -0.697495    0.000000
      4          6           0        0.000000   -1.394991    0.000000
      5          6           0        1.208097   -0.697495    0.000000
      6          6           0        1.208097    0.697495    0.000000
      7          1           0        0.000000    2.494601    0.000000
      8          1           0       -2.160388    1.247300    0.000000
      9          1           0       -2.160388   -1.247300    0.000000
     10          1           0        0.000000   -2.494601    0.000000
     11          1           0        2.160388   -1.247300    0.000000
     12          1           0        2.160388    1.247300    0.000000
 ---------------------------------------------------------------------
                    Distance matrix (angstroms):
                    1          2          3          4          5
     1  C    0.000000
     2  C    1.394991   0.000000
     3  C    2.416195   1.394991   0.000000
     4  C    2.789981   2.416195   1.394991   0.000000
     5  C    2.416195   2.789981   2.416195   1.394991   0.000000
     6  C    1.394991   2.416195   2.789981   2.416195   1.394991
     7  H    1.099610   2.165430   3.413060   3.889592   3.413060
     8  H    2.165430   1.099610   2.165430   3.413060   3.889592
     9  H    3.413060   2.165430   1.099610   2.165430   3.413060
    10  H    3.889592   3.413060   2.165430   1.099610   2.165430
    11  H    3.413060   3.889592   3.413060   2.165430   1.099610
    12  H    2.165430   3.413060   3.889592   3.413060   2.165430
                    6          7          8          9         10
     6  C    0.000000
     7  H    2.165430   0.000000
     8  H    3.413060   2.494601   0.000000
     9  H    3.889592   4.320776   2.494601   0.000000
    10  H    3.413060   4.989202   4.320776   2.494601   0.000000
    11  H    2.165430   4.320776   4.989202   4.320776   2.494601
    12  H    1.099610   2.494601   4.320776   4.989202   4.320776
                   11         12
    11  H    0.000000
    12  H    2.494601   0.000000
 Stoichiometry    C6H6
 Framework group  D6H[3C2'(HC.CH)]
 Deg. of freedom     2
 Full point group                 D6H     NOp  24
 Largest Abelian subgroup         D2H     NOp   8
 Largest concise Abelian subgroup D2      NOp   4
                         Standard orientation:                         
 ---------------------------------------------------------------------
 Center     Atomic      Atomic             Coordinates (Angstroms)
 Number     Number       Type             X           Y           Z
 ---------------------------------------------------------------------
      1          6           0        0.000000    1.394991    0.000000
      2          6           0        1.208097    0.697495    0.000000
      3          6           0        1.208097   -0.697495    0.000000
      4          6           0        0.000000   -1.394991    0.000000
      5          6           0       -1.208097   -0.697495    0.000000
      6          6           0       -1.208097    0.697495    0.000000
      7          1           0        0.000000    2.494601    0.000000
      8          1           0        2.160388    1.247300    0.000000
      9          1           0        2.160388   -1.247300    0.000000
     10          1           0        0.000000   -2.494601    0.000000
     11          1           0       -2.160388   -1.247300    0.000000
     12          1           0       -2.160388    1.247300    0.000000
 ---------------------------------------------------------------------
 Rotational constants (GHZ):           5.6866486           5.6866486           2.8433243
 Standard basis: 6-31G (6D, 7F)
 There are    16 symmetry adapted cartesian basis functions of AG  symmetry.
 There are    11 symmetry adapted cartesian basis functions of B1G symmetry.
 There are     2 symmetry adapted cartesian basis functions of B2G symmetry.
 There are     4 symmetry adapted cartesian basis functions of B3G symmetry.
 There are     2 symmetry adapted cartesian basis functions of AU  symmetry.
 There are     4 symmetry adapted cartesian basis functions of B1U symmetry.
 There are    16 symmetry adapted cartesian basis functions of B2U symmetry.
 There are    11 symmetry adapted cartesian basis functions of B3U symmetry.
 There are    16 symmetry adapted basis functions of AG  symmetry.
 There are    11 symmetry adapted basis functions of B1G symmetry.
 There are     2 symmetry adapted basis functions of B2G symmetry.
 There are     4 symmetry adapted basis functions of B3G symmetry.
 There are     2 symmetry adapted basis functions of AU  symmetry.
 There are     4 symmetry adapted basis functions of B1U symmetry.
 There are    16 symmetry adapted basis functions of B2U symmetry.
 There are    11 symmetry adapted basis functions of B3U symmetry.
    66 basis functions,   156 primitive gaussians,    66 cartesian basis functions
    21 alpha electrons       21 beta electrons
       nuclear repulsion energy       203.0352987363 Hartrees.
 NAtoms=   12 NActive=   12 NUniq=    2 SFac= 4.00D+00 NAtFMM=   60 NAOKFM=F Big=F
 Integral buffers will be    131072 words long.
 Raffenetti 1 integral format.
 Two-electron integral symmetry is turned on.
 One-electron integrals computed using PRISM.
 NBasis=    66 RedAO= T EigKep=  7.01D-04  NBF=    16    11     2     4     2     4    16    11
 NBsUse=    66 1.00D-06 EigRej= -1.00D+00 NBFU=    16    11     2     4     2     4    16    11
 ExpMin= 1.61D-01 ExpMax= 3.05D+03 ExpMxC= 4.57D+02 IAcc=3 IRadAn=         5 AccDes= 0.00D+00
 Harris functional with IExCor=  205 and IRadAn=       5 diagonalized for initial guess.
 HarFok:  IExCor=  205 AccDes= 0.00D+00 IRadAn=         5 IDoV= 1 UseB2=F ITyADJ=14
 ICtDFT=  3500011 ScaDFX=  1.000000  1.000000  1.000000  1.000000
 FoFCou: FMM=F IPFlag=           0 FMFlag=      100000 FMFlg1=           0
         NFxFlg=           0 DoJE=T BraDBF=F KetDBF=T FulRan=T
         wScrn=  0.000000 ICntrl=       500 IOpCl=  0 I1Cent=   200000004 NGrid=           0
         NMat0=    1 NMatS0=      1 NMatT0=    0 NMatD0=    1 NMtDS0=    0 NMtDT0=    0
 Petite list used in FoFCou.
 Initial guess orbital symmetries:
       Occupied  (A1G) (E1U) (E1U) (E2G) (E2G) (B1U) (A1G) (E1U)
                 (E1U) (E2G) (E2G) (A1G) (B2U) (B1U) (E1U) (E1U)
                 (A2U) (E2G) (E2G) (E1G) (E1G)
       Virtual   (E2U) (E2U) (B2G) (A1G) (E1U) (E1U) (E2G) (E2G)
                 (B1U) (E2G) (E2G) (E1U) (E1U) (B2U) (A2U) (B1U)
                 (A2G) (A1G) (E2G) (E2G) (E1G) (E1G) (E1U) (E1U)
                 (A1G) (E2U) (E2U) (B2G) (B1U) (E2G) (E2G) (E1U)
                 (E1U) (A2G) (A1G) (E1U) (E1U) (E2G) (E2G) (E1U)
                 (E1U) (B1U) (E2G) (E2G) (B1U)
 The electronic state of the initial guess is 1-A1G.
 Keep R1 ints in memory in symmetry-blocked form, NReq=3299549.
 Requested convergence on RMS density matrix=1.00D-08 within 128 cycles.
 Requested convergence on MAX density matrix=1.00D-06.
 Requested convergence on             energy=1.00D-06.
 No special actions if energy rises.
 SCF Done:  E(RHF) =  -230.621326879     A.U. after    8 cycles
            NFock=  8  Conv=0.42D-08     -V/T= 2.0003

 **********************************************************************

            Population analysis using the SCF Density.

 **********************************************************************

 Orbital symmetries:
       Occupied  (A1G) (E1U) (E1U) (E2G) (E2G) (B1U) (A1G) (E1U)
                 (E1U) (E2G) (E2G) (A1G) (B1U) (B2U) (E1U) (E1U)
                 (A2U) (E2G) (E2G) (E1G) (E1G)
       Virtual   (E2U) (E2U) (A1G) (E1U) (E1U) (E2G) (E2G) (B1U)
                 (B2G) (E2G) (E2G) (E1U) (E1U) (B2U) (A2U) (B1U)
                 (A2G) (A1G) (A1G) (E1G) (E1G) (E2G) (E2G) (E1U)
                 (E1U) (E2U) (E2U) (B2G) (E2G) (E2G) (B1U) (E1U)
                 (E1U) (A1G) (E1U) (E1U) (A2G) (E2G) (E2G) (E1U)
                 (E1U) (B1U) (E2G) (E2G) (B1U)
 The electronic state is 1-A1G.
 Alpha  occ. eigenvalues --  -11.24123 -11.24068 -11.24068 -11.23950 -11.23950
 Alpha  occ. eigenvalues --  -11.23892  -1.15181  -1.01307  -1.01307  -0.81856
 Alpha  occ. eigenvalues --   -0.81856  -0.70466  -0.63132  -0.61701  -0.58248
 Alpha  occ. eigenvalues --   -0.58248  -0.49966  -0.48479  -0.48479  -0.33384
 Alpha  occ. eigenvalues --   -0.33384
 Alpha virt. eigenvalues --    0.14565   0.14565   0.22786   0.28620   0.28620
 Alpha virt. eigenvalues --    0.32768   0.32768   0.33170   0.36128   0.46884
 Alpha virt. eigenvalues --    0.46884   0.49665   0.49665   0.68104   0.75363
 Alpha virt. eigenvalues --    0.77043   0.77172   0.78171   0.84024   0.84429
 Alpha virt. eigenvalues --    0.84429   0.87373   0.87373   0.89671   0.89671
 Alpha virt. eigenvalues --    0.91505   0.91505   0.99066   1.12353   1.12353
 Alpha virt. eigenvalues --    1.13103   1.15356   1.15356   1.23003   1.27094
 Alpha virt. eigenvalues --    1.27094   1.27348   1.36155   1.36155   1.43553
 Alpha virt. eigenvalues --    1.43553   1.47472   1.71838   1.71838   2.15834
          Condensed to atoms (all electrons):
               1          2          3          4          5          6
     1  C    4.989577   0.512708  -0.055386  -0.032521  -0.055386   0.512708
     2  C    0.512708   4.989577   0.512708  -0.055386  -0.032521  -0.055386
     3  C   -0.055386   0.512708   4.989577   0.512708  -0.055386  -0.032521
     4  C   -0.032521  -0.055386   0.512708   4.989577   0.512708  -0.055386
     5  C   -0.055386  -0.032521  -0.055386   0.512708   4.989577   0.512708
     6  C    0.512708  -0.055386  -0.032521  -0.055386   0.512708   4.989577
     7  H    0.373198  -0.023838   0.002276   0.000123   0.002276  -0.023838
     8  H   -0.023838   0.373198  -0.023838   0.002276   0.000123   0.002276
     9  H    0.002276  -0.023838   0.373198  -0.023838   0.002276   0.000123
    10  H    0.000123   0.002276  -0.023838   0.373198  -0.023838   0.002276
    11  H    0.002276   0.000123   0.002276  -0.023838   0.373198  -0.023838
    12  H   -0.023838   0.002276   0.000123   0.002276  -0.023838   0.373198
               7          8          9         10         11         12
     1  C    0.373198  -0.023838   0.002276   0.000123   0.002276  -0.023838
     2  C   -0.023838   0.373198  -0.023838   0.002276   0.000123   0.002276
     3  C    0.002276  -0.023838   0.373198  -0.023838   0.002276   0.000123
     4  C    0.000123   0.002276  -0.023838   0.373198  -0.023838   0.002276
     5  C    0.002276   0.000123   0.002276  -0.023838   0.373198  -0.023838
     6  C   -0.023838   0.002276   0.000123   0.002276  -0.023838   0.373198
     7  H    0.468816  -0.000356  -0.000100   0.000005  -0.000100  -0.000356
     8  H   -0.000356   0.468816  -0.000356  -0.000100   0.000005  -0.000100
     9  H   -0.000100  -0.000356   0.468816  -0.000356  -0.000100   0.000005
    10  H    0.000005  -0.000100  -0.000356   0.468816  -0.000356  -0.000100
    11  H   -0.000100   0.000005  -0.000100  -0.000356   0.468816  -0.000356
    12  H   -0.000356  -0.000100   0.000005  -0.000100  -0.000356   0.468816
 Mulliken charges:
               1
     1  C   -0.201895
     2  C   -0.201895
     3  C   -0.201895
     4  C   -0.201895
     5  C   -0.201895
     6  C   -0.201895
     7  H    0.201895
     8  H    0.201895
     9  H    0.201895
    10  H    0.201895
    11  H    0.201895
    12  H    0.201895
 Sum of Mulliken charges =   0.00000
 Mulliken charges with hydrogens summed into heavy atoms:
               1
     1  C    0.000000
     2  C    0.000000
     3  C    0.000000
     4  C    0.000000
     5  C    0.000000
     6  C    0.000000
 Electronic spatial extent (au):  <R**2>=            460.8583
 Charge=              0.0000 electrons
 Dipole moment (field-independent basis, Debye):
    X=              0.0000    Y=              0.0000    Z=              0.0000  Tot=              0.0000
 Quadrupole moment (field-independent basis, Debye-Ang):
   XX=            -31.7773   YY=            -31.7773   ZZ=            -40.4794
   XY=              0.0000   XZ=              0.0000   YZ=              0.0000
 Traceless Quadrupole moment (field-independent basis, Debye-Ang):
   XX=              2.9007   YY=              2.9007   ZZ=             -5.8013
   XY=              0.0000   XZ=              0.0000   YZ=              0.0000
 Octapole moment (field-independent basis, Debye-Ang**2):
  XXX=              0.0000  YYY=              0.0000  ZZZ=              0.0000  XYY=              0.0000
  XXY=              0.0000  XXZ=              0.0000  XZZ=              0.0000  YZZ=              0.0000
  YYZ=              0.0000  XYZ=              0.0000
 Hexadecapole moment (field-independent basis, Debye-Ang**3):
 XXXX=           -267.8111 YYYY=           -267.8111 ZZZZ=            -43.9280 XXXY=              0.0000
 XXXZ=              0.0000 YYYX=              0.0000 YYYZ=              0.0000 ZZZX=              0.0000
 ZZZY=              0.0000 XXYY=            -89.2704 XXZZ=            -63.1799 YYZZ=            -63.1799
 XXYZ=              0.0000 YYXZ=              0.0000 ZZXY=              0.0000
 N-N= 2.030352987363D+02 E-N=-9.428498036021D+02  KE= 2.305574603441D+02
 Symmetry AG   KE= 7.444533972630D+01
 Symmetry B1G  KE= 3.765932904474D+01
 Symmetry B2G  KE= 2.077721451943D+00
 Symmetry B3G  KE= 2.077721451943D+00
 Symmetry AU   KE=-2.944480715985D-16
 Symmetry B1U  KE= 1.760709267247D+00
 Symmetry B2U  KE= 7.210314007535D+01
 Symmetry B3U  KE= 4.043349932657D+01
 Calling FoFJK, ICntrl=      2127 FMM=F ISym2X=1 I1Cent= 0 IOpClX= 0 NMat=1 NMatS=1 NMatT=0.
 ***** Axes restored to original set *****
 -------------------------------------------------------------------
 Center     Atomic                   Forces (Hartrees/Bohr)
 Number     Number              X              Y              Z
 -------------------------------------------------------------------
      1        6           0.000000000    0.011010738    0.000000000
      2        6          -0.009535579    0.005505369    0.000000000
      3        6          -0.009535579   -0.005505369    0.000000000
      4        6           0.000000000   -0.011010738    0.000000000
      5        6           0.009535579   -0.005505369    0.000000000
      6        6           0.009535579    0.005505369    0.000000000
      7        1           0.000000000   -0.018674445    0.000000000
      8        1           0.016172543   -0.009337222    0.000000000
      9        1           0.016172543    0.009337222    0.000000000
     10        1           0.000000000    0.018674445    0.000000000
     11        1          -0.016172543    0.009337222    0.000000000
     12        1          -0.016172543   -0.009337222    0.000000000
 -------------------------------------------------------------------
 Cartesian Forces:  Max     0.018674445 RMS     0.008850341

 GradGradGradGradGradGradGradGradGradGradGradGradGradGradGradGradGradGrad
 Berny optimization.
 FormGI is forming the generalized inverse of G from B-inverse, IUseBI=4.
 Internal  Forces:  Max     0.018674445 RMS     0.006728606
 Search for a local minimum.
 Step number   1 out of a maximum of   64
 All quantities printed in internal units (Hartrees-Bohrs-Radians)
 Mixed Optimization -- RFO/linear search
 Second derivative matrix not updated -- first step.
 ITU=  0
     Eigenvalues ---    0.02155   0.02155   0.02155   0.02155   0.02155
     Eigenvalues ---    0.02155   0.02155   0.02155   0.02155   0.16000
     Eigenvalues ---    0.16000   0.16000   0.16000   0.16000   0.16000
     Eigenvalues ---    0.22000   0.22000   0.22000   0.33725   0.33725
     Eigenvalues ---    0.33725   0.33725   0.33725   0.33725   0.42118
     Eigenvalues ---    0.42118   0.46461   0.46461   0.46461   0.46461
 RFO step:  Lambda=-6.82863918D-03 EMin= 2.15501965D-02
 Linear search not attempted -- first point.
 Iteration  1 RMS(Cart)=  0.02412619 RMS(Int)=  0.00000000
 Iteration  2 RMS(Cart)=  0.00000000 RMS(Int)=  0.00000000
 ClnCor:  largest displacement from symmetrization is 2.55D-13 for atom    11.
 Variable       Old X    -DE/DX   Delta X   Delta X   Delta X     New X
                                 (Linear)    (Quad)   (Total)
    R1        2.63615  -0.00766   0.00000  -0.01626  -0.01626   2.61989
    R2        2.63615  -0.00766   0.00000  -0.01626  -0.01626   2.61989
    R3        2.07796  -0.01867   0.00000  -0.05427  -0.05427   2.02369
    R4        2.63615  -0.00766   0.00000  -0.01626  -0.01626   2.61989
    R5        2.07796  -0.01867   0.00000  -0.05427  -0.05427   2.02369
    R6        2.63615  -0.00766   0.00000  -0.01626  -0.01626   2.61989
    R7        2.07796  -0.01867   0.00000  -0.05427  -0.05427   2.02369
    R8        2.63615  -0.00766   0.00000  -0.01626  -0.01626   2.61989
    R9        2.07796  -0.01867   0.00000  -0.05427  -0.05427   2.02369
   R10        2.63615  -0.00766   0.00000  -0.01626  -0.01626   2.61989
   R11        2.07796  -0.01867   0.00000  -0.05427  -0.05427   2.02369
   R12        2.07796  -0.01867   0.00000  -0.05427  -0.05427   2.02369
    A1        2.09440   0.00000   0.00000   0.00000   0.00000   2.09440
    A2        2.09440   0.00000   0.00000   0.00000   0.00000   2.09440
    A3        2.09440   0.00000   0.00000   0.00000   0.00000   2.09440
    A4        2.09440   0.00000   0.00000   0.00000   0.00000   2.09440
    A5        2.09440   0.00000   0.00000   0.00000   0.00000   2.09440
    A6        2.09440   0.00000   0.00000   0.00000   0.00000   2.09440
    A7        2.09440   0.00000   0.00000   0.00000   0.00000   2.09440
    A8        2.09440   0.00000   0.00000   0.00000   0.00000   2.09440
    A9        2.09440   0.00000   0.00000   0.00000   0.00000   2.09440
   A10        2.09440   0.00000   0.00000   0.00000   0.00000   2.09440
   A11        2.09440   0.00000   0.00000   0.00000   0.00000   2.09440
   A12        2.09440   0.00000   0.00000   0.00000   0.00000   2.09440
   A13        2.09440   0.00000   0.00000   0.00000   0.00000   2.09440
   A14        2.09440   0.00000   0.00000   0.00000   0.00000   2.09440
   A15        2.09440   0.00000   0.00000   0.00000   0.00000   2.09440
   A16        2.09440   0.00000   0.00000   0.00000   0.00000   2.09440
   A17        2.09440   0.00000   0.00000   0.00000   0.00000   2.09440
   A18        2.09440   0.00000   0.00000   0.00000   0.00000   2.09440
    D1        0.00000   0.00000   0.00000   0.00000   0.00000   0.00000
    D2        3.14159   0.00000   0.00000   0.00000   0.00000   3.14159
    D3        3.14159   0.00000   0.00000   0.00000   0.00000   3.14159
    D4        0.00000   0.00000   0.00000   0.00000   0.00000   0.00000
    D5        0.00000   0.00000   0.00000   0.00000   0.00000   0.00000
    D6        3.14159   0.00000   0.00000   0.00000   0.00000   3.14159
    D7        3.14159   0.00000   0.00000   0.00000   0.00000   3.14159
    D8        0.00000   0.00000   0.00000   0.00000   0.00000   0.00000
    D9        0.00000   0.00000   0.00000   0.00000   0.00000   0.00000
   D10        3.14159   0.00000   0.00000   0.00000   0.00000   3.14159
   D11        3.14159   0.00000   0.00000   0.00000   0.00000   3.14159
   D12        0.00000   0.00000   0.00000   0.00000   0.00000   0.00000
   D13        0.00000   0.00000   0.00000   0.00000   0.00000   0.00000
   D14        3.14159   0.00000   0.00000   0.00000   0.00000   3.14159
   D15        3.14159   0.00000   0.00000   0.00000   0.00000   3.14159
   D16        0.00000   0.00000   0.00000   0.00000   0.00000   0.00000
   D17        0.00000   0.00000   0.00000   0.00000   0.00000   0.00000
   D18        3.14159   0.00000   0.00000   0.00000   0.00000   3.14159
   D19        3.14159   0.00000   0.00000   0.00000   0.00000   3.14159
   D20        0.00000   0.00000   0.00000   0.00000   0.00000   0.00000
   D21        0.00000   0.00000   0.00000   0.00000   0.00000   0.00000
   D22        3.14159   0.00000   0.00000   0.00000   0.00000   3.14159
   D23        3.14159   0.00000   0.00000   0.00000   0.00000   3.14159
   D24        0.00000   0.00000   0.00000   0.00000   0.00000   0.00000
         Item               Value     Threshold  Converged?
 Maximum Force            0.018674     0.000450     NO 
 RMS     Force            0.006729     0.000300     NO 
 Maximum Displacement     0.070529     0.001800     NO 
 RMS     Displacement     0.024126     0.001200     NO 
 Predicted change in Energy=-3.480077D-03
 GradGradGradGradGradGradGradGradGradGradGradGradGradGradGradGradGradGrad

                          Input orientation:                          
 ---------------------------------------------------------------------
 Center     Atomic      Atomic             Coordinates (Angstroms)
 Number     Number       Type             X           Y           Z
 ---------------------------------------------------------------------
      1          6           0        0.000000    1.386388    0.000000
      2          6           0       -1.200648    0.693194    0.000000
      3          6           0       -1.200648   -0.693194    0.000000
      4          6           0        0.000000   -1.386388    0.000000
      5          6           0        1.200648   -0.693194    0.000000
      6          6           0        1.200648    0.693194    0.000000
      7          1           0        0.000000    2.457278    0.000000
      8          1           0       -2.128066    1.228639    0.000000
      9          1           0       -2.128066   -1.228639    0.000000
     10          1           0        0.000000   -2.457278    0.000000
     11          1           0        2.128066   -1.228639    0.000000
     12          1           0        2.128066    1.228639    0.000000
 ---------------------------------------------------------------------
                    Distance matrix (angstroms):
                    1          2          3          4          5
     1  C    0.000000
     2  C    1.386388   0.000000
     3  C    2.401295   1.386388   0.000000
     4  C    2.772777   2.401295   1.386388   0.000000
     5  C    2.401295   2.772777   2.401295   1.386388   0.000000
     6  C    1.386388   2.401295   2.772777   2.401295   1.386388
     7  H    1.070890   2.133904   3.371503   3.843667   3.371503
     8  H    2.133904   1.070890   2.133904   3.371503   3.843667
     9  H    3.371503   2.133904   1.070890   2.133904   3.371503
    10  H    3.843667   3.371503   2.133904   1.070890   2.133904
    11  H    3.371503   3.843667   3.371503   2.133904   1.070890
    12  H    2.133904   3.371503   3.843667   3.371503   2.133904
                    6          7          8          9         10
     6  C    0.000000
     7  H    2.133904   0.000000
     8  H    3.371503   2.457278   0.000000
     9  H    3.843667   4.256131   2.457278   0.000000
    10  H    3.371503   4.914557   4.256131   2.457278   0.000000
    11  H    2.133904   4.256131   4.914557   4.256131   2.457278
    12  H    1.070890   2.457278   4.256131   4.914557   4.256131
                   11         12
    11  H    0.000000
    12  H    2.457278   0.000000
 Stoichiometry    C6H6
 Framework group  D6H[3C2'(HC.CH)]
 Deg. of freedom     2
 Full point group                 D6H     NOp  24
 Largest Abelian subgroup         D2H     NOp   8
 Largest concise Abelian subgroup D2      NOp   4
                         Standard orientation:                         
 ---------------------------------------------------------------------
 Center     Atomic      Atomic             Coordinates (Angstroms)
 Number     Number       Type             X           Y           Z
 ---------------------------------------------------------------------
      1          6           0        0.000000    1.386388    0.000000
      2          6           0        1.200648    0.693194    0.000000
      3          6           0        1.200648   -0.693194    0.000000
      4          6           0        0.000000   -1.386388    0.000000
      5          6           0       -1.200648   -0.693194    0.000000
      6          6           0       -1.200648    0.693194    0.000000
      7          1           0        0.000000    2.457278    0.000000
      8          1           0        2.128066    1.228639    0.000000
      9          1           0        2.128066   -1.228639    0.000000
     10          1           0        0.000000   -2.457278    0.000000
     11          1           0       -2.128066   -1.228639    0.000000
     12          1           0       -2.128066    1.228639    0.000000
 ---------------------------------------------------------------------
 Rotational constants (GHZ):           5.7789954           5.7789954           2.8894977
 Standard basis: 6-31G (6D, 7F)
 There are    16 symmetry adapted cartesian basis functions of AG  symmetry.
 There are    11 symmetry adapted cartesian basis functions of B1G symmetry.
 There are     2 symmetry adapted cartesian basis functions of B2G symmetry.
 There are     4 symmetry adapted cartesian basis functions of B3G symmetry.
 There are     2 symmetry adapted cartesian basis functions of AU  symmetry.
 There are     4 symmetry adapted cartesian basis functions of B1U symmetry.
 There are    16 symmetry adapted cartesian basis functions of B2U symmetry.
 There are    11 symmetry adapted cartesian basis functions of B3U symmetry.
 There are    16 symmetry adapted basis functions of AG  symmetry.
 There are    11 symmetry adapted basis functions of B1G symmetry.
 There are     2 symmetry adapted basis functions of B2G symmetry.
 There are     4 symmetry adapted basis functions of B3G symmetry.
 There are     2 symmetry adapted basis functions of AU  symmetry.
 There are     4 symmetry adapted basis functions of B1U symmetry.
 There are    16 symmetry adapted basis functions of B2U symmetry.
 There are    11 symmetry adapted basis functions of B3U symmetry.
    66 basis functions,   156 primitive gaussians,    66 cartesian basis functions
    21 alpha electrons       21 beta electrons
       nuclear repulsion energy       204.9203615139 Hartrees.
 NAtoms=   12 NActive=   12 NUniq=    2 SFac= 4.00D+00 NAtFMM=   60 NAOKFM=F Big=F
 Integral buffers will be    131072 words long.
 Raffenetti 1 integral format.
 Two-electron integral symmetry is turned on.
 One-electron integrals computed using PRISM.
 NBasis=    66 RedAO= T EigKep=  6.45D-04  NBF=    16    11     2     4     2     4    16    11
 NBsUse=    66 1.00D-06 EigRej= -1.00D+00 NBFU=    16    11     2     4     2     4    16    11
 Initial guess from the checkpoint file:  "D:\APPs\lihaibei\molecules-use\C6H6.chk"
 B after Tr=     0.000000    0.000000    0.000000
         Rot=    1.000000    0.000000    0.000000    0.000000 Ang=   0.00 deg.
 Initial guess orbital symmetries:
       Occupied  (A1G) (E1U) (E1U) (E2G) (E2G) (B1U) (A1G) (E1U)
                 (E1U) (E2G) (E2G) (A1G) (B1U) (B2U) (E1U) (E1U)
                 (A2U) (E2G) (E2G) (E1G) (E1G)
       Virtual   (E2U) (E2U) (A1G) (E1U) (E1U) (E2G) (E2G) (B1U)
                 (B2G) (E2G) (E2G) (E1U) (E1U) (B2U) (A2U) (B1U)
                 (A2G) (A1G) (A1G) (E1G) (E1G) (E2G) (E2G) (E1U)
                 (E1U) (E2U) (E2U) (B2G) (E2G) (E2G) (B1U) (E1U)
                 (E1U) (A1G) (E1U) (E1U) (A2G) (E2G) (E2G) (E1U)
                 (E1U) (B1U) (E2G) (E2G) (B1U)
 ExpMin= 1.61D-01 ExpMax= 3.05D+03 ExpMxC= 4.57D+02 IAcc=3 IRadAn=         5 AccDes= 0.00D+00
 Harris functional with IExCor=  205 and IRadAn=       5 diagonalized for initial guess.
 HarFok:  IExCor=  205 AccDes= 0.00D+00 IRadAn=         5 IDoV= 1 UseB2=F ITyADJ=14
 ICtDFT=  3500011 ScaDFX=  1.000000  1.000000  1.000000  1.000000
 FoFCou: FMM=F IPFlag=           0 FMFlag=      100000 FMFlg1=           0
         NFxFlg=           0 DoJE=T BraDBF=F KetDBF=T FulRan=T
         wScrn=  0.000000 ICntrl=       500 IOpCl=  0 I1Cent=   200000004 NGrid=           0
         NMat0=    1 NMatS0=      1 NMatT0=    0 NMatD0=    1 NMtDS0=    0 NMtDT0=    0
 Petite list used in FoFCou.
 Keep R1 ints in memory in symmetry-blocked form, NReq=3299801.
 Requested convergence on RMS density matrix=1.00D-08 within 128 cycles.
 Requested convergence on MAX density matrix=1.00D-06.
 Requested convergence on             energy=1.00D-06.
 No special actions if energy rises.
 SCF Done:  E(RHF) =  -230.624426263     A.U. after    7 cycles
            NFock=  7  Conv=0.79D-08     -V/T= 1.9986
 Calling FoFJK, ICntrl=      2127 FMM=F ISym2X=1 I1Cent= 0 IOpClX= 0 NMat=1 NMatS=1 NMatT=0.
 ***** Axes restored to original set *****
 -------------------------------------------------------------------
 Center     Atomic                   Forces (Hartrees/Bohr)
 Number     Number              X              Y              Z
 -------------------------------------------------------------------
      1        6           0.000000000    0.000305592    0.000000000
      2        6          -0.000264651    0.000152796    0.000000000
      3        6          -0.000264651   -0.000152796    0.000000000
      4        6           0.000000000   -0.000305592    0.000000000
      5        6           0.000264651   -0.000152796    0.000000000
      6        6           0.000264651    0.000152796    0.000000000
      7        1           0.000000000    0.001859321    0.000000000
      8        1          -0.001610219    0.000929661    0.000000000
      9        1          -0.001610219   -0.000929661    0.000000000
     10        1           0.000000000   -0.001859321    0.000000000
     11        1           0.001610219   -0.000929661    0.000000000
     12        1           0.001610219    0.000929661    0.000000000
 -------------------------------------------------------------------
 Cartesian Forces:  Max     0.001859321 RMS     0.000769249

 GradGradGradGradGradGradGradGradGradGradGradGradGradGradGradGradGradGrad
 Berny optimization.
 Using GEDIIS/GDIIS optimizer.
 FormGI is forming the generalized inverse of G from B-inverse, IUseBI=4.
 Internal  Forces:  Max     0.002164913 RMS     0.000951252
 Search for a local minimum.
 Step number   2 out of a maximum of   64
 All quantities printed in internal units (Hartrees-Bohrs-Radians)
 Mixed Optimization -- En-DIIS/RFO-DIIS
 Update second derivatives using D2CorX and points    1    2
 DE= -3.10D-03 DEPred=-3.48D-03 R= 8.91D-01
 TightC=F SS=  1.41D+00  RLast= 1.39D-01 DXNew= 5.0454D-01 4.1633D-01
 Trust test= 8.91D-01 RLast= 1.39D-01 DXMaxT set to 4.16D-01
 ITU=  1  0
 Use linear search instead of GDIIS.
     Eigenvalues ---    0.02155   0.02155   0.02155   0.02155   0.02155
     Eigenvalues ---    0.02155   0.02155   0.02155   0.02155   0.16000
     Eigenvalues ---    0.16000   0.16000   0.16000   0.16000   0.16000
     Eigenvalues ---    0.22000   0.22000   0.22000   0.33725   0.33725
     Eigenvalues ---    0.33725   0.33725   0.33725   0.35885   0.42074
     Eigenvalues ---    0.42074   0.46461   0.46461   0.46461   0.49846
 RFO step:  Lambda=-1.87774671D-05 EMin= 2.15501965D-02
 Quartic linear search produced a step of -0.10015.
 Iteration  1 RMS(Cart)=  0.00308142 RMS(Int)=  0.00000000
 Iteration  2 RMS(Cart)=  0.00000000 RMS(Int)=  0.00000000
 ClnCor:  largest displacement from symmetrization is 2.99D-13 for atom     2.
 Variable       Old X    -DE/DX   Delta X   Delta X   Delta X     New X
                                 (Linear)    (Quad)   (Total)
    R1        2.61989   0.00216   0.00163   0.00241   0.00403   2.62393
    R2        2.61989   0.00216   0.00163   0.00241   0.00403   2.62393
    R3        2.02369   0.00186   0.00544  -0.00115   0.00428   2.02797
    R4        2.61989   0.00216   0.00163   0.00241   0.00403   2.62393
    R5        2.02369   0.00186   0.00544  -0.00115   0.00428   2.02797
    R6        2.61989   0.00216   0.00163   0.00241   0.00403   2.62393
    R7        2.02369   0.00186   0.00544  -0.00115   0.00428   2.02797
    R8        2.61989   0.00216   0.00163   0.00241   0.00403   2.62393
    R9        2.02369   0.00186   0.00544  -0.00115   0.00428   2.02797
   R10        2.61989   0.00216   0.00163   0.00241   0.00403   2.62393
   R11        2.02369   0.00186   0.00544  -0.00115   0.00428   2.02797
   R12        2.02369   0.00186   0.00544  -0.00115   0.00428   2.02797
    A1        2.09440   0.00000   0.00000   0.00000   0.00000   2.09440
    A2        2.09440   0.00000   0.00000   0.00000   0.00000   2.09440
    A3        2.09440   0.00000   0.00000   0.00000   0.00000   2.09440
    A4        2.09440   0.00000   0.00000   0.00000   0.00000   2.09440
    A5        2.09440   0.00000   0.00000   0.00000   0.00000   2.09440
    A6        2.09440   0.00000   0.00000   0.00000   0.00000   2.09440
    A7        2.09440   0.00000   0.00000   0.00000   0.00000   2.09440
    A8        2.09440   0.00000   0.00000   0.00000   0.00000   2.09440
    A9        2.09440   0.00000   0.00000   0.00000   0.00000   2.09440
   A10        2.09440   0.00000   0.00000   0.00000   0.00000   2.09440
   A11        2.09440   0.00000   0.00000   0.00000   0.00000   2.09440
   A12        2.09440   0.00000   0.00000   0.00000   0.00000   2.09440
   A13        2.09440   0.00000   0.00000   0.00000   0.00000   2.09440
   A14        2.09440   0.00000   0.00000   0.00000   0.00000   2.09440
   A15        2.09440   0.00000   0.00000   0.00000   0.00000   2.09440
   A16        2.09440   0.00000   0.00000   0.00000   0.00000   2.09440
   A17        2.09440   0.00000   0.00000   0.00000   0.00000   2.09440
   A18        2.09440   0.00000   0.00000   0.00000   0.00000   2.09440
    D1        0.00000   0.00000   0.00000   0.00000   0.00000   0.00000
    D2        3.14159   0.00000   0.00000   0.00000   0.00000   3.14159
    D3        3.14159   0.00000   0.00000   0.00000   0.00000   3.14159
    D4        0.00000   0.00000   0.00000   0.00000   0.00000   0.00000
    D5        0.00000   0.00000   0.00000   0.00000   0.00000   0.00000
    D6        3.14159   0.00000   0.00000   0.00000   0.00000   3.14159
    D7        3.14159   0.00000   0.00000   0.00000   0.00000   3.14159
    D8        0.00000   0.00000   0.00000   0.00000   0.00000   0.00000
    D9        0.00000   0.00000   0.00000   0.00000   0.00000   0.00000
   D10        3.14159   0.00000   0.00000   0.00000   0.00000   3.14159
   D11        3.14159   0.00000   0.00000   0.00000   0.00000   3.14159
   D12        0.00000   0.00000   0.00000   0.00000   0.00000   0.00000
   D13        0.00000   0.00000   0.00000   0.00000   0.00000   0.00000
   D14        3.14159   0.00000   0.00000   0.00000   0.00000   3.14159
   D15        3.14159   0.00000   0.00000   0.00000   0.00000   3.14159
   D16        0.00000   0.00000   0.00000   0.00000   0.00000   0.00000
   D17        0.00000   0.00000   0.00000   0.00000   0.00000   0.00000
   D18        3.14159   0.00000   0.00000   0.00000   0.00000   3.14159
   D19        3.14159   0.00000   0.00000   0.00000   0.00000   3.14159
   D20        0.00000   0.00000   0.00000   0.00000   0.00000   0.00000
   D21        0.00000   0.00000   0.00000   0.00000   0.00000   0.00000
   D22        3.14159   0.00000   0.00000   0.00000   0.00000   3.14159
   D23        3.14159   0.00000   0.00000   0.00000   0.00000   3.14159
   D24        0.00000   0.00000   0.00000   0.00000   0.00000   0.00000
         Item               Value     Threshold  Converged?
 Maximum Force            0.002165     0.000450     NO 
 RMS     Force            0.000951     0.000300     NO 
 Maximum Displacement     0.008318     0.001800     NO 
 RMS     Displacement     0.003081     0.001200     NO 
 Predicted change in Energy=-5.246116D-05
 GradGradGradGradGradGradGradGradGradGradGradGradGradGradGradGradGradGrad

                          Input orientation:                          
 ---------------------------------------------------------------------
 Center     Atomic      Atomic             Coordinates (Angstroms)
 Number     Number       Type             X           Y           Z
 ---------------------------------------------------------------------
      1          6           0        0.000000    1.388523    0.000000
      2          6           0       -1.202496    0.694262    0.000000
      3          6           0       -1.202496   -0.694262    0.000000
      4          6           0        0.000000   -1.388523    0.000000
      5          6           0        1.202496   -0.694262    0.000000
      6          6           0        1.202496    0.694262    0.000000
      7          1           0        0.000000    2.461680    0.000000
      8          1           0       -2.131877    1.230840    0.000000
      9          1           0       -2.131877   -1.230840    0.000000
     10          1           0        0.000000   -2.461680    0.000000
     11          1           0        2.131877   -1.230840    0.000000
     12          1           0        2.131877    1.230840    0.000000
 ---------------------------------------------------------------------
                    Distance matrix (angstroms):
                    1          2          3          4          5
     1  C    0.000000
     2  C    1.388523   0.000000
     3  C    2.404992   1.388523   0.000000
     4  C    2.777046   2.404992   1.388523   0.000000
     5  C    2.404992   2.777046   2.404992   1.388523   0.000000
     6  C    1.388523   2.404992   2.777046   2.404992   1.388523
     7  H    1.073157   2.137701   3.377272   3.850203   3.377272
     8  H    2.137701   1.073157   2.137701   3.377272   3.850203
     9  H    3.377272   2.137701   1.073157   2.137701   3.377272
    10  H    3.850203   3.377272   2.137701   1.073157   2.137701
    11  H    3.377272   3.850203   3.377272   2.137701   1.073157
    12  H    2.137701   3.377272   3.850203   3.377272   2.137701
                    6          7          8          9         10
     6  C    0.000000
     7  H    2.137701   0.000000
     8  H    3.377272   2.461680   0.000000
     9  H    3.850203   4.263755   2.461680   0.000000
    10  H    3.377272   4.923360   4.263755   2.461680   0.000000
    11  H    2.137701   4.263755   4.923360   4.263755   2.461680
    12  H    1.073157   2.461680   4.263755   4.923360   4.263755
                   11         12
    11  H    0.000000
    12  H    2.461680   0.000000
 Stoichiometry    C6H6
 Framework group  D6H[3C2'(HC.CH)]
 Deg. of freedom     2
 Full point group                 D6H     NOp  24
 Largest Abelian subgroup         D2H     NOp   8
 Largest concise Abelian subgroup D2      NOp   4
                         Standard orientation:                         
 ---------------------------------------------------------------------
 Center     Atomic      Atomic             Coordinates (Angstroms)
 Number     Number       Type             X           Y           Z
 ---------------------------------------------------------------------
      1          6           0        0.000000    1.388523    0.000000
      2          6           0        1.202496    0.694262    0.000000
      3          6           0        1.202496   -0.694262    0.000000
      4          6           0        0.000000   -1.388523    0.000000
      5          6           0       -1.202496   -0.694262    0.000000
      6          6           0       -1.202496    0.694262    0.000000
      7          1           0        0.000000    2.461680    0.000000
      8          1           0        2.131877    1.230840    0.000000
      9          1           0        2.131877   -1.230840    0.000000
     10          1           0        0.000000   -2.461680    0.000000
     11          1           0       -2.131877   -1.230840    0.000000
     12          1           0       -2.131877    1.230840    0.000000
 ---------------------------------------------------------------------
 Rotational constants (GHZ):           5.7606360           5.7606360           2.8803180
 Standard basis: 6-31G (6D, 7F)
 There are    16 symmetry adapted cartesian basis functions of AG  symmetry.
 There are    11 symmetry adapted cartesian basis functions of B1G symmetry.
 There are     2 symmetry adapted cartesian basis functions of B2G symmetry.
 There are     4 symmetry adapted cartesian basis functions of B3G symmetry.
 There are     2 symmetry adapted cartesian basis functions of AU  symmetry.
 There are     4 symmetry adapted cartesian basis functions of B1U symmetry.
 There are    16 symmetry adapted cartesian basis functions of B2U symmetry.
 There are    11 symmetry adapted cartesian basis functions of B3U symmetry.
 There are    16 symmetry adapted basis functions of AG  symmetry.
 There are    11 symmetry adapted basis functions of B1G symmetry.
 There are     2 symmetry adapted basis functions of B2G symmetry.
 There are     4 symmetry adapted basis functions of B3G symmetry.
 There are     2 symmetry adapted basis functions of AU  symmetry.
 There are     4 symmetry adapted basis functions of B1U symmetry.
 There are    16 symmetry adapted basis functions of B2U symmetry.
 There are    11 symmetry adapted basis functions of B3U symmetry.
    66 basis functions,   156 primitive gaussians,    66 cartesian basis functions
    21 alpha electrons       21 beta electrons
       nuclear repulsion energy       204.5875167771 Hartrees.
 NAtoms=   12 NActive=   12 NUniq=    2 SFac= 4.00D+00 NAtFMM=   60 NAOKFM=F Big=F
 Integral buffers will be    131072 words long.
 Raffenetti 1 integral format.
 Two-electron integral symmetry is turned on.
 One-electron integrals computed using PRISM.
 NBasis=    66 RedAO= T EigKep=  6.56D-04  NBF=    16    11     2     4     2     4    16    11
 NBsUse=    66 1.00D-06 EigRej= -1.00D+00 NBFU=    16    11     2     4     2     4    16    11
 Initial guess from the checkpoint file:  "D:\APPs\lihaibei\molecules-use\C6H6.chk"
 B after Tr=     0.000000    0.000000    0.000000
         Rot=    1.000000    0.000000    0.000000    0.000000 Ang=   0.00 deg.
 Initial guess orbital symmetries:
       Occupied  (A1G) (E1U) (E1U) (E2G) (E2G) (B1U) (A1G) (E1U)
                 (E1U) (E2G) (E2G) (A1G) (B1U) (B2U) (E1U) (E1U)
                 (A2U) (E2G) (E2G) (E1G) (E1G)
       Virtual   (E2U) (E2U) (A1G) (E1U) (E1U) (E2G) (E2G) (B1U)
                 (B2G) (E2G) (E2G) (E1U) (E1U) (B2U) (A2U) (A2G)
                 (A1G) (B1U) (A1G) (E1G) (E1G) (E2G) (E2G) (E1U)
                 (E1U) (E2U) (E2U) (B2G) (B1U) (E2G) (E2G) (E1U)
                 (E1U) (A1G) (E1U) (E1U) (A2G) (E2G) (E2G) (E1U)
                 (E1U) (B1U) (E2G) (E2G) (B1U)
 Keep R1 ints in memory in symmetry-blocked form, NReq=3299801.
 Requested convergence on RMS density matrix=1.00D-08 within 128 cycles.
 Requested convergence on MAX density matrix=1.00D-06.
 Requested convergence on             energy=1.00D-06.
 No special actions if energy rises.
 SCF Done:  E(RHF) =  -230.624474533     A.U. after    7 cycles
            NFock=  7  Conv=0.13D-08     -V/T= 1.9988
 Calling FoFJK, ICntrl=      2127 FMM=F ISym2X=1 I1Cent= 0 IOpClX= 0 NMat=1 NMatS=1 NMatT=0.
 ***** Axes restored to original set *****
 -------------------------------------------------------------------
 Center     Atomic                   Forces (Hartrees/Bohr)
 Number     Number              X              Y              Z
 -------------------------------------------------------------------
      1        6           0.000000000   -0.000339343    0.000000000
      2        6           0.000293879   -0.000169671    0.000000000
      3        6           0.000293879    0.000169671    0.000000000
      4        6           0.000000000    0.000339343    0.000000000
      5        6          -0.000293879    0.000169671    0.000000000
      6        6          -0.000293879   -0.000169671    0.000000000
      7        1           0.000000000    0.000095515    0.000000000
      8        1          -0.000082718    0.000047757    0.000000000
      9        1          -0.000082718   -0.000047757    0.000000000
     10        1           0.000000000   -0.000095515    0.000000000
     11        1           0.000082718   -0.000047757    0.000000000
     12        1           0.000082718    0.000047757    0.000000000
 -------------------------------------------------------------------
 Cartesian Forces:  Max     0.000339343 RMS     0.000143919

 GradGradGradGradGradGradGradGradGradGradGradGradGradGradGradGradGradGrad
 Berny optimization.
 Using GEDIIS/GDIIS optimizer.
 FormGI is forming the generalized inverse of G from B-inverse, IUseBI=4.
 Internal  Forces:  Max     0.000243828 RMS     0.000087289
 Search for a local minimum.
 Step number   3 out of a maximum of   64
 All quantities printed in internal units (Hartrees-Bohrs-Radians)
 Mixed Optimization -- En-DIIS/RFO-DIIS
 Swapping is turned off.
 Update second derivatives using D2CorX and points    1    2    3
 DE= -4.83D-05 DEPred=-5.25D-05 R= 9.20D-01
 TightC=F SS=  1.41D+00  RLast= 1.44D-02 DXNew= 7.0018D-01 4.3239D-02
 Trust test= 9.20D-01 RLast= 1.44D-02 DXMaxT set to 4.16D-01
 ITU=  1  1  0
     Eigenvalues ---    0.02155   0.02155   0.02155   0.02155   0.02155
     Eigenvalues ---    0.02155   0.02155   0.02155   0.02155   0.16000
     Eigenvalues ---    0.16000   0.16000   0.16000   0.16000   0.16000
     Eigenvalues ---    0.22000   0.22000   0.22000   0.33725   0.33725
     Eigenvalues ---    0.33725   0.33725   0.33725   0.35164   0.42085
     Eigenvalues ---    0.42085   0.46461   0.46461   0.46461   0.55700
 En-DIIS/RFO-DIIS/Sim-DIIS IScMMF=       -3 using points:     3    2
 RFO step:  Lambda=-8.87502314D-07.
 DidBck=F Rises=F RFO-DIIS coefs:    0.98479    0.01521
 Iteration  1 RMS(Cart)=  0.00016718 RMS(Int)=  0.00000000
 Iteration  2 RMS(Cart)=  0.00000000 RMS(Int)=  0.00000000
 ClnCor:  largest displacement from symmetrization is 1.49D-13 for atom     8.
 Variable       Old X    -DE/DX   Delta X   Delta X   Delta X     New X
                                 (Linear)    (Quad)   (Total)
    R1        2.62393  -0.00024  -0.00006  -0.00042  -0.00048   2.62345
    R2        2.62393  -0.00024  -0.00006  -0.00042  -0.00048   2.62345
    R3        2.02797   0.00010  -0.00007   0.00039   0.00033   2.02830
    R4        2.62393  -0.00024  -0.00006  -0.00042  -0.00048   2.62345
    R5        2.02797   0.00010  -0.00007   0.00039   0.00033   2.02830
    R6        2.62393  -0.00024  -0.00006  -0.00042  -0.00048   2.62345
    R7        2.02797   0.00010  -0.00007   0.00039   0.00033   2.02830
    R8        2.62393  -0.00024  -0.00006  -0.00042  -0.00048   2.62345
    R9        2.02797   0.00010  -0.00007   0.00039   0.00033   2.02830
   R10        2.62393  -0.00024  -0.00006  -0.00042  -0.00048   2.62345
   R11        2.02797   0.00010  -0.00007   0.00039   0.00033   2.02830
   R12        2.02797   0.00010  -0.00007   0.00039   0.00033   2.02830
    A1        2.09440   0.00000   0.00000   0.00000   0.00000   2.09440
    A2        2.09440   0.00000   0.00000   0.00000   0.00000   2.09440
    A3        2.09440   0.00000   0.00000   0.00000   0.00000   2.09440
    A4        2.09440   0.00000   0.00000   0.00000   0.00000   2.09440
    A5        2.09440   0.00000   0.00000   0.00000   0.00000   2.09440
    A6        2.09440   0.00000   0.00000   0.00000   0.00000   2.09440
    A7        2.09440   0.00000   0.00000   0.00000   0.00000   2.09440
    A8        2.09440   0.00000   0.00000   0.00000   0.00000   2.09440
    A9        2.09440   0.00000   0.00000   0.00000   0.00000   2.09440
   A10        2.09440   0.00000   0.00000   0.00000   0.00000   2.09440
   A11        2.09440   0.00000   0.00000   0.00000   0.00000   2.09440
   A12        2.09440   0.00000   0.00000   0.00000   0.00000   2.09440
   A13        2.09440   0.00000   0.00000   0.00000   0.00000   2.09440
   A14        2.09440   0.00000   0.00000   0.00000   0.00000   2.09440
   A15        2.09440   0.00000   0.00000   0.00000   0.00000   2.09440
   A16        2.09440   0.00000   0.00000   0.00000   0.00000   2.09440
   A17        2.09440   0.00000   0.00000   0.00000   0.00000   2.09440
   A18        2.09440   0.00000   0.00000   0.00000   0.00000   2.09440
    D1        0.00000   0.00000   0.00000   0.00000   0.00000   0.00000
    D2        3.14159   0.00000   0.00000   0.00000   0.00000   3.14159
    D3        3.14159   0.00000   0.00000   0.00000   0.00000   3.14159
    D4        0.00000   0.00000   0.00000   0.00000   0.00000   0.00000
    D5        0.00000   0.00000   0.00000   0.00000   0.00000   0.00000
    D6        3.14159   0.00000   0.00000   0.00000   0.00000   3.14159
    D7        3.14159   0.00000   0.00000   0.00000   0.00000   3.14159
    D8        0.00000   0.00000   0.00000   0.00000   0.00000   0.00000
    D9        0.00000   0.00000   0.00000   0.00000   0.00000   0.00000
   D10        3.14159   0.00000   0.00000   0.00000   0.00000   3.14159
   D11        3.14159   0.00000   0.00000   0.00000   0.00000   3.14159
   D12        0.00000   0.00000   0.00000   0.00000   0.00000   0.00000
   D13        0.00000   0.00000   0.00000   0.00000   0.00000   0.00000
   D14        3.14159   0.00000   0.00000   0.00000   0.00000   3.14159
   D15        3.14159   0.00000   0.00000   0.00000   0.00000   3.14159
   D16        0.00000   0.00000   0.00000   0.00000   0.00000   0.00000
   D17        0.00000   0.00000   0.00000   0.00000   0.00000   0.00000
   D18        3.14159   0.00000   0.00000   0.00000   0.00000   3.14159
   D19        3.14159   0.00000   0.00000   0.00000   0.00000   3.14159
   D20        0.00000   0.00000   0.00000   0.00000   0.00000   0.00000
   D21        0.00000   0.00000   0.00000   0.00000   0.00000   0.00000
   D22        3.14159   0.00000   0.00000   0.00000   0.00000   3.14159
   D23        3.14159   0.00000   0.00000   0.00000   0.00000   3.14159
   D24        0.00000   0.00000   0.00000   0.00000   0.00000   0.00000
         Item               Value     Threshold  Converged?
 Maximum Force            0.000244     0.000450     YES
 RMS     Force            0.000087     0.000300     YES
 Maximum Displacement     0.000478     0.001800     YES
 RMS     Displacement     0.000167     0.001200     YES
 Predicted change in Energy=-4.437520D-07
 Optimization completed.
    -- Stationary point found.
                           ----------------------------
                           !   Optimized Parameters   !
                           ! (Angstroms and Degrees)  !
 --------------------------                            --------------------------
 ! Name  Definition              Value          Derivative Info.                !
 --------------------------------------------------------------------------------
 ! R1    R(1,2)                  1.3885         -DE/DX =   -0.0002              !
 ! R2    R(1,6)                  1.3885         -DE/DX =   -0.0002              !
 ! R3    R(1,7)                  1.0732         -DE/DX =    0.0001              !
 ! R4    R(2,3)                  1.3885         -DE/DX =   -0.0002              !
 ! R5    R(2,8)                  1.0732         -DE/DX =    0.0001              !
 ! R6    R(3,4)                  1.3885         -DE/DX =   -0.0002              !
 ! R7    R(3,9)                  1.0732         -DE/DX =    0.0001              !
 ! R8    R(4,5)                  1.3885         -DE/DX =   -0.0002              !
 ! R9    R(4,10)                 1.0732         -DE/DX =    0.0001              !
 ! R10   R(5,6)                  1.3885         -DE/DX =   -0.0002              !
 ! R11   R(5,11)                 1.0732         -DE/DX =    0.0001              !
 ! R12   R(6,12)                 1.0732         -DE/DX =    0.0001              !
 ! A1    A(2,1,6)              120.0            -DE/DX =    0.0                 !
 ! A2    A(2,1,7)              120.0            -DE/DX =    0.0                 !
 ! A3    A(6,1,7)              120.0            -DE/DX =    0.0                 !
 ! A4    A(1,2,3)              120.0            -DE/DX =    0.0                 !
 ! A5    A(1,2,8)              120.0            -DE/DX =    0.0                 !
 ! A6    A(3,2,8)              120.0            -DE/DX =    0.0                 !
 ! A7    A(2,3,4)              120.0            -DE/DX =    0.0                 !
 ! A8    A(2,3,9)              120.0            -DE/DX =    0.0                 !
 ! A9    A(4,3,9)              120.0            -DE/DX =    0.0                 !
 ! A10   A(3,4,5)              120.0            -DE/DX =    0.0                 !
 ! A11   A(3,4,10)             120.0            -DE/DX =    0.0                 !
 ! A12   A(5,4,10)             120.0            -DE/DX =    0.0                 !
 ! A13   A(4,5,6)              120.0            -DE/DX =    0.0                 !
 ! A14   A(4,5,11)             120.0            -DE/DX =    0.0                 !
 ! A15   A(6,5,11)             120.0            -DE/DX =    0.0                 !
 ! A16   A(1,6,5)              120.0            -DE/DX =    0.0                 !
 ! A17   A(1,6,12)             120.0            -DE/DX =    0.0                 !
 ! A18   A(5,6,12)             120.0            -DE/DX =    0.0                 !
 ! D1    D(6,1,2,3)              0.0            -DE/DX =    0.0                 !
 ! D2    D(6,1,2,8)            180.0            -DE/DX =    0.0                 !
 ! D3    D(7,1,2,3)            180.0            -DE/DX =    0.0                 !
 ! D4    D(7,1,2,8)              0.0            -DE/DX =    0.0                 !
 ! D5    D(2,1,6,5)              0.0            -DE/DX =    0.0                 !
 ! D6    D(2,1,6,12)           180.0            -DE/DX =    0.0                 !
 ! D7    D(7,1,6,5)            180.0            -DE/DX =    0.0                 !
 ! D8    D(7,1,6,12)             0.0            -DE/DX =    0.0                 !
 ! D9    D(1,2,3,4)              0.0            -DE/DX =    0.0                 !
 ! D10   D(1,2,3,9)            180.0            -DE/DX =    0.0                 !
 ! D11   D(8,2,3,4)            180.0            -DE/DX =    0.0                 !
 ! D12   D(8,2,3,9)              0.0            -DE/DX =    0.0                 !
 ! D13   D(2,3,4,5)              0.0            -DE/DX =    0.0                 !
 ! D14   D(2,3,4,10)           180.0            -DE/DX =    0.0                 !
 ! D15   D(9,3,4,5)            180.0            -DE/DX =    0.0                 !
 ! D16   D(9,3,4,10)             0.0            -DE/DX =    0.0                 !
 ! D17   D(3,4,5,6)              0.0            -DE/DX =    0.0                 !
 ! D18   D(3,4,5,11)           180.0            -DE/DX =    0.0                 !
 ! D19   D(10,4,5,6)           180.0            -DE/DX =    0.0                 !
 ! D20   D(10,4,5,11)            0.0            -DE/DX =    0.0                 !
 ! D21   D(4,5,6,1)              0.0            -DE/DX =    0.0                 !
 ! D22   D(4,5,6,12)           180.0            -DE/DX =    0.0                 !
 ! D23   D(11,5,6,1)           180.0            -DE/DX =    0.0                 !
 ! D24   D(11,5,6,12)            0.0            -DE/DX =    0.0                 !
 --------------------------------------------------------------------------------
 GradGradGradGradGradGradGradGradGradGradGradGradGradGradGradGradGradGrad

                          Input orientation:                          
 ---------------------------------------------------------------------
 Center     Atomic      Atomic             Coordinates (Angstroms)
 Number     Number       Type             X           Y           Z
 ---------------------------------------------------------------------
      1          6           0        0.000000    1.388523    0.000000
      2          6           0       -1.202496    0.694262    0.000000
      3          6           0       -1.202496   -0.694262    0.000000
      4          6           0        0.000000   -1.388523    0.000000
      5          6           0        1.202496   -0.694262    0.000000
      6          6           0        1.202496    0.694262    0.000000
      7          1           0        0.000000    2.461680    0.000000
      8          1           0       -2.131877    1.230840    0.000000
      9          1           0       -2.131877   -1.230840    0.000000
     10          1           0        0.000000   -2.461680    0.000000
     11          1           0        2.131877   -1.230840    0.000000
     12          1           0        2.131877    1.230840    0.000000
 ---------------------------------------------------------------------
                    Distance matrix (angstroms):
                    1          2          3          4          5
     1  C    0.000000
     2  C    1.388523   0.000000
     3  C    2.404992   1.388523   0.000000
     4  C    2.777046   2.404992   1.388523   0.000000
     5  C    2.404992   2.777046   2.404992   1.388523   0.000000
     6  C    1.388523   2.404992   2.777046   2.404992   1.388523
     7  H    1.073157   2.137701   3.377272   3.850203   3.377272
     8  H    2.137701   1.073157   2.137701   3.377272   3.850203
     9  H    3.377272   2.137701   1.073157   2.137701   3.377272
    10  H    3.850203   3.377272   2.137701   1.073157   2.137701
    11  H    3.377272   3.850203   3.377272   2.137701   1.073157
    12  H    2.137701   3.377272   3.850203   3.377272   2.137701
                    6          7          8          9         10
     6  C    0.000000
     7  H    2.137701   0.000000
     8  H    3.377272   2.461680   0.000000
     9  H    3.850203   4.263755   2.461680   0.000000
    10  H    3.377272   4.923360   4.263755   2.461680   0.000000
    11  H    2.137701   4.263755   4.923360   4.263755   2.461680
    12  H    1.073157   2.461680   4.263755   4.923360   4.263755
                   11         12
    11  H    0.000000
    12  H    2.461680   0.000000
 Stoichiometry    C6H6
 Framework group  D6H[3C2'(HC.CH)]
 Deg. of freedom     2
 Full point group                 D6H     NOp  24
 Largest Abelian subgroup         D2H     NOp   8
 Largest concise Abelian subgroup D2      NOp   4
                         Standard orientation:                         
 ---------------------------------------------------------------------
 Center     Atomic      Atomic             Coordinates (Angstroms)
 Number     Number       Type             X           Y           Z
 ---------------------------------------------------------------------
      1          6           0        0.000000    1.388523    0.000000
      2          6           0        1.202496    0.694262    0.000000
      3          6           0        1.202496   -0.694262    0.000000
      4          6           0        0.000000   -1.388523    0.000000
      5          6           0       -1.202496   -0.694262    0.000000
      6          6           0       -1.202496    0.694262    0.000000
      7          1           0        0.000000    2.461680    0.000000
      8          1           0        2.131877    1.230840    0.000000
      9          1           0        2.131877   -1.230840    0.000000
     10          1           0        0.000000   -2.461680    0.000000
     11          1           0       -2.131877   -1.230840    0.000000
     12          1           0       -2.131877    1.230840    0.000000
 ---------------------------------------------------------------------
 Rotational constants (GHZ):           5.7606360           5.7606360           2.8803180

 **********************************************************************

            Population analysis using the SCF Density.

 **********************************************************************

 Orbital symmetries:
       Occupied  (A1G) (E1U) (E1U) (E2G) (E2G) (B1U) (A1G) (E1U)
                 (E1U) (E2G) (E2G) (A1G) (B1U) (B2U) (E1U) (E1U)
                 (A2U) (E2G) (E2G) (E1G) (E1G)
       Virtual   (E2U) (E2U) (A1G) (E1U) (E1U) (E2G) (E2G) (B1U)
                 (B2G) (E2G) (E2G) (E1U) (E1U) (B2U) (A2U) (A2G)
                 (A1G) (B1U) (A1G) (E1G) (E1G) (E2G) (E2G) (E1U)
                 (E1U) (E2U) (E2U) (B2G) (B1U) (E2G) (E2G) (E1U)
                 (E1U) (A1G) (E1U) (E1U) (A2G) (E2G) (E2G) (E1U)
                 (E1U) (B1U) (E2G) (E2G) (B1U)
 The electronic state is 1-A1G.
 Alpha  occ. eigenvalues --  -11.23507 -11.23451 -11.23451 -11.23328 -11.23328
 Alpha  occ. eigenvalues --  -11.23269  -1.15533  -1.01676  -1.01676  -0.82379
 Alpha  occ. eigenvalues --   -0.82379  -0.71346  -0.64005  -0.61843  -0.58814
 Alpha  occ. eigenvalues --   -0.58814  -0.50111  -0.48818  -0.48818  -0.33390
 Alpha  occ. eigenvalues --   -0.33390
 Alpha virt. eigenvalues --    0.14806   0.14806   0.23600   0.29216   0.29216
 Alpha virt. eigenvalues --    0.33252   0.33252   0.33903   0.36527   0.47340
 Alpha virt. eigenvalues --    0.47340   0.50013   0.50013   0.67919   0.75418
 Alpha virt. eigenvalues --    0.77718   0.78331   0.78378   0.83602   0.84494
 Alpha virt. eigenvalues --    0.84494   0.88040   0.88040   0.89834   0.89834
 Alpha virt. eigenvalues --    0.91745   0.91745   0.99413   1.14192   1.14251
 Alpha virt. eigenvalues --    1.14251   1.17308   1.17308   1.25496   1.27464
 Alpha virt. eigenvalues --    1.27464   1.28388   1.36140   1.36140   1.44173
 Alpha virt. eigenvalues --    1.44173   1.48618   1.73541   1.73541   2.18290
          Condensed to atoms (all electrons):
               1          2          3          4          5          6
     1  C    4.973788   0.519915  -0.056852  -0.032880  -0.056852   0.519915
     2  C    0.519915   4.973788   0.519915  -0.056852  -0.032880  -0.056852
     3  C   -0.056852   0.519915   4.973788   0.519915  -0.056852  -0.032880
     4  C   -0.032880  -0.056852   0.519915   4.973788   0.519915  -0.056852
     5  C   -0.056852  -0.032880  -0.056852   0.519915   4.973788   0.519915
     6  C    0.519915  -0.056852  -0.032880  -0.056852   0.519915   4.973788
     7  H    0.375820  -0.024735   0.002499   0.000150   0.002499  -0.024735
     8  H   -0.024735   0.375820  -0.024735   0.002499   0.000150   0.002499
     9  H    0.002499  -0.024735   0.375820  -0.024735   0.002499   0.000150
    10  H    0.000150   0.002499  -0.024735   0.375820  -0.024735   0.002499
    11  H    0.002499   0.000150   0.002499  -0.024735   0.375820  -0.024735
    12  H   -0.024735   0.002499   0.000150   0.002499  -0.024735   0.375820
               7          8          9         10         11         12
     1  C    0.375820  -0.024735   0.002499   0.000150   0.002499  -0.024735
     2  C   -0.024735   0.375820  -0.024735   0.002499   0.000150   0.002499
     3  C    0.002499  -0.024735   0.375820  -0.024735   0.002499   0.000150
     4  C    0.000150   0.002499  -0.024735   0.375820  -0.024735   0.002499
     5  C    0.002499   0.000150   0.002499  -0.024735   0.375820  -0.024735
     6  C   -0.024735   0.002499   0.000150   0.002499  -0.024735   0.375820
     7  H    0.471068  -0.000437  -0.000114   0.000006  -0.000114  -0.000437
     8  H   -0.000437   0.471068  -0.000437  -0.000114   0.000006  -0.000114
     9  H   -0.000114  -0.000437   0.471068  -0.000437  -0.000114   0.000006
    10  H    0.000006  -0.000114  -0.000437   0.471068  -0.000437  -0.000114
    11  H   -0.000114   0.000006  -0.000114  -0.000437   0.471068  -0.000437
    12  H   -0.000437  -0.000114   0.000006  -0.000114  -0.000437   0.471068
 Mulliken charges:
               1
     1  C   -0.198531
     2  C   -0.198531
     3  C   -0.198531
     4  C   -0.198531
     5  C   -0.198531
     6  C   -0.198531
     7  H    0.198531
     8  H    0.198531
     9  H    0.198531
    10  H    0.198531
    11  H    0.198531
    12  H    0.198531
 Sum of Mulliken charges =   0.00000
 Mulliken charges with hydrogens summed into heavy atoms:
               1
     1  C    0.000000
     2  C    0.000000
     3  C    0.000000
     4  C    0.000000
     5  C    0.000000
     6  C    0.000000
 Electronic spatial extent (au):  <R**2>=            454.7280
 Charge=              0.0000 electrons
 Dipole moment (field-independent basis, Debye):
    X=              0.0000    Y=              0.0000    Z=              0.0000  Tot=              0.0000
 Quadrupole moment (field-independent basis, Debye-Ang):
   XX=            -31.7138   YY=            -31.7138   ZZ=            -40.1763
   XY=              0.0000   XZ=              0.0000   YZ=              0.0000
 Traceless Quadrupole moment (field-independent basis, Debye-Ang):
   XX=              2.8208   YY=              2.8208   ZZ=             -5.6417
   XY=              0.0000   XZ=              0.0000   YZ=              0.0000
 Octapole moment (field-independent basis, Debye-Ang**2):
  XXX=              0.0000  YYY=              0.0000  ZZZ=              0.0000  XYY=              0.0000
  XXY=              0.0000  XXZ=              0.0000  XZZ=              0.0000  YZZ=              0.0000
  YYZ=              0.0000  XYZ=              0.0000
 Hexadecapole moment (field-independent basis, Debye-Ang**3):
 XXXX=           -263.7262 YYYY=           -263.7262 ZZZZ=            -43.4574 XXXY=              0.0000
 XXXZ=              0.0000 YYYX=              0.0000 YYYZ=              0.0000 ZZZX=              0.0000
 ZZZY=              0.0000 XXYY=            -87.9087 XXZZ=            -61.7282 YYZZ=            -61.7282
 XXYZ=              0.0000 YYXZ=              0.0000 ZZXY=              0.0000
 N-N= 2.045875167771D+02 E-N=-9.462580493229D+02  KE= 2.309006153262D+02
 Symmetry AG   KE= 7.454940670814D+01
 Symmetry B1G  KE= 3.772000891839D+01
 Symmetry B2G  KE= 2.080366028724D+00
 Symmetry B3G  KE= 2.080366028724D+00
 Symmetry AU   KE= 1.129698290838D-16
 Symmetry B1U  KE= 1.761810470387D+00
 Symmetry B2U  KE= 7.220601908649D+01
 Symmetry B3U  KE= 4.050263808531D+01
 1|1|UNPC-WIN10-2T0259|FOpt|RHF|6-31G|C6H6|SDDX|16-Apr-2026|0||# opt hf
 /6-31g geom=connectivity||Title Card Required||0,1|C,0.0000000027,1.38
 85230467,0.|C,-1.2024962308,0.6942615256,0.|C,-1.2024962335,-0.6942615
 21,0.|C,-0.0000000027,-1.3885230467,0.|C,1.2024962308,-0.6942615256,0.
 |C,1.2024962335,0.694261521,0.|H,0.0000000047,2.4616799166,0.|H,-2.131
 8773414,1.2308399624,0.|H,-2.1318773462,-1.2308399542,0.|H,-0.00000000
 47,-2.4616799166,0.|H,2.1318773414,-1.2308399624,0.|H,2.1318773462,1.2
 308399542,0.||Version=EM64W-G16RevB.01|State=1-A1G|HF=-230.6244745|RMS
 D=1.302e-009|RMSF=1.439e-004|Dipole=0.,0.,0.|Quadrupole=2.0972187,2.09
 72187,-4.1944374,0.,0.,0.|PG=D06H [3C2'(H1C1.C1H1)]||@


 A politician is a person who can make waves and then
 make you think he's the only one who can save the ship.
 -- Ivern Ball
 Job cpu time:       0 days  0 hours  0 minutes  4.0 seconds.
 Elapsed time:       0 days  0 hours  0 minutes  2.9 seconds.
 File lengths (MBytes):  RWF=      6 Int=      0 D2E=      0 Chk=      2 Scr=      1
 Normal termination of Gaussian 16 at Thu Apr 16 10:58:48 2026.
