 Entering Link 1 = C:\G16W\l1.exe PID=      8308.
  
 Copyright (c) 1988-2017, Gaussian, Inc.  All Rights Reserved.
  
 This is part of the Gaussian(R) 16 program.  It is based on
 the Gaussian(R) 09 system (copyright 2009, Gaussian, Inc.),
 the Gaussian(R) 03 system (copyright 2003, Gaussian, Inc.),
 the Gaussian(R) 98 system (copyright 1998, Gaussian, Inc.),
 the Gaussian(R) 94 system (copyright 1995, Gaussian, Inc.),
 the Gaussian 92(TM) system (copyright 1992, Gaussian, Inc.),
 the Gaussian 90(TM) system (copyright 1990, Gaussian, Inc.),
 the Gaussian 88(TM) system (copyright 1988, Gaussian, Inc.),
 the Gaussian 86(TM) system (copyright 1986, Carnegie Mellon
 University), and the Gaussian 82(TM) system (copyright 1983,
 Carnegie Mellon University). Gaussian is a federally registered
 trademark of Gaussian, Inc.
  
 This software contains proprietary and confidential information,
 including trade secrets, belonging to Gaussian, Inc.
  
 This software is provided under written license and may be
 used, copied, transmitted, or stored only in accord with that
 written license.
  
 The following legend is applicable only to US Government
 contracts under FAR:
  
                    RESTRICTED RIGHTS LEGEND
  
 Use, reproduction and disclosure by the US Government is
 subject to restrictions as set forth in subparagraphs (a)
 and (c) of the Commercial Computer Software - Restricted
 Rights clause in FAR 52.227-19.
  
 Gaussian, Inc.
 340 Quinnipiac St., Bldg. 40, Wallingford CT 06492
  
  
 ---------------------------------------------------------------
 Warning -- This program may not be used in any manner that
 competes with the business of Gaussian, Inc. or will provide
 assistance to any competitor of Gaussian, Inc.  The licensee
 of this program is prohibited from giving any competitor of
 Gaussian, Inc. access to this program.  By using this program,
 the user acknowledges that Gaussian, Inc. is engaged in the
 business of creating and licensing software in the field of
 computational chemistry and represents and warrants to the
 licensee that it is not a competitor of Gaussian, Inc. and that
 it will not use this program in any manner prohibited above.
 ---------------------------------------------------------------
  

 Cite this work as:
 Gaussian 16, Revision B.01,
 M. J. Frisch, G. W. Trucks, H. B. Schlegel, G. E. Scuseria, 
 M. A. Robb, J. R. Cheeseman, G. Scalmani, V. Barone, 
 G. A. Petersson, H. Nakatsuji, X. Li, M. Caricato, A. V. Marenich, 
 J. Bloino, B. G. Janesko, R. Gomperts, B. Mennucci, H. P. Hratchian, 
 J. V. Ortiz, A. F. Izmaylov, J. L. Sonnenberg, D. Williams-Young, 
 F. Ding, F. Lipparini, F. Egidi, J. Goings, B. Peng, A. Petrone, 
 T. Henderson, D. Ranasinghe, V. G. Zakrzewski, J. Gao, N. Rega, 
 G. Zheng, W. Liang, M. Hada, M. Ehara, K. Toyota, R. Fukuda, 
 J. Hasegawa, M. Ishida, T. Nakajima, Y. Honda, O. Kitao, H. Nakai, 
 T. Vreven, K. Throssell, J. A. Montgomery, Jr., J. E. Peralta, 
 F. Ogliaro, M. J. Bearpark, J. J. Heyd, E. N. Brothers, K. N. Kudin, 
 V. N. Staroverov, T. A. Keith, R. Kobayashi, J. Normand, 
 K. Raghavachari, A. P. Rendell, J. C. Burant, S. S. Iyengar, 
 J. Tomasi, M. Cossi, J. M. Millam, M. Klene, C. Adamo, R. Cammi, 
 J. W. Ochterski, R. L. Martin, K. Morokuma, O. Farkas, 
 J. B. Foresman, and D. J. Fox, Gaussian, Inc., Wallingford CT, 2016.
 
 ******************************************
 Gaussian 16:  EM64W-G16RevB.01 16-Dec-2017
                16-Apr-2026 
 ******************************************
 %chk=D:\APPs\lihaibei\molecules-use\CH3CH3-D3d.chk
 --------------------------------
 # opt hf/6-31g geom=connectivity
 --------------------------------
 1/18=20,19=15,38=1,57=2/1,3;
 2/9=110,12=2,17=6,18=5,40=1/2;
 3/5=1,6=6,11=9,25=1,30=1,71=1/1,2,3;
 4//1;
 5/5=2,38=5/2;
 6/7=2,8=2,9=2,10=2,28=1/1;
 7//1,2,3,16;
 1/18=20,19=15/3(2);
 2/9=110/2;
 99//99;
 2/9=110/2;
 3/5=1,6=6,11=9,25=1,30=1,71=1/1,2,3;
 4/5=5,16=3,69=1/1;
 5/5=2,38=5/2;
 7//1,2,3,16;
 1/18=20,19=15/3(-5);
 2/9=110/2;
 6/7=2,8=2,9=2,10=2,19=2,28=1/1;
 99/9=1/99;
 -------------------
 Title Card Required
 -------------------
 Symbolic Z-matrix:
 Charge =  0 Multiplicity = 1
 C                     0.        0.       -0.75011 
 C                     0.        0.        0.75011 
 H                     0.        1.0449   -1.14521 
 H                     0.90491  -0.52245  -1.14521 
 H                    -0.90491  -0.52245  -1.14521 
 H                     0.       -1.0449    1.14521 
 H                     0.90491   0.52245   1.14521 
 H                    -0.90491   0.52245   1.14521 
 

 GradGradGradGradGradGradGradGradGradGradGradGradGradGradGradGradGradGrad
 Berny optimization.
 Initialization pass.
                           ----------------------------
                           !    Initial Parameters    !
                           ! (Angstroms and Degrees)  !
 --------------------------                            --------------------------
 ! Name  Definition              Value          Derivative Info.                !
 --------------------------------------------------------------------------------
 ! R1    R(1,2)                  1.5002         estimate D2E/DX2                !
 ! R2    R(1,3)                  1.1171         estimate D2E/DX2                !
 ! R3    R(1,4)                  1.1171         estimate D2E/DX2                !
 ! R4    R(1,5)                  1.1171         estimate D2E/DX2                !
 ! R5    R(2,6)                  1.1171         estimate D2E/DX2                !
 ! R6    R(2,7)                  1.1171         estimate D2E/DX2                !
 ! R7    R(2,8)                  1.1171         estimate D2E/DX2                !
 ! A1    A(2,1,3)              110.7129         estimate D2E/DX2                !
 ! A2    A(2,1,4)              110.7129         estimate D2E/DX2                !
 ! A3    A(2,1,5)              110.7129         estimate D2E/DX2                !
 ! A4    A(3,1,4)              108.2015         estimate D2E/DX2                !
 ! A5    A(3,1,5)              108.2015         estimate D2E/DX2                !
 ! A6    A(4,1,5)              108.2015         estimate D2E/DX2                !
 ! A7    A(1,2,6)              110.7129         estimate D2E/DX2                !
 ! A8    A(1,2,7)              110.7129         estimate D2E/DX2                !
 ! A9    A(1,2,8)              110.7129         estimate D2E/DX2                !
 ! A10   A(6,2,7)              108.2015         estimate D2E/DX2                !
 ! A11   A(6,2,8)              108.2015         estimate D2E/DX2                !
 ! A12   A(7,2,8)              108.2015         estimate D2E/DX2                !
 ! D1    D(3,1,2,6)            180.0            estimate D2E/DX2                !
 ! D2    D(3,1,2,7)            -60.0            estimate D2E/DX2                !
 ! D3    D(3,1,2,8)             60.0            estimate D2E/DX2                !
 ! D4    D(4,1,2,6)            -60.0            estimate D2E/DX2                !
 ! D5    D(4,1,2,7)             60.0            estimate D2E/DX2                !
 ! D6    D(4,1,2,8)            180.0            estimate D2E/DX2                !
 ! D7    D(5,1,2,6)             60.0            estimate D2E/DX2                !
 ! D8    D(5,1,2,7)            180.0            estimate D2E/DX2                !
 ! D9    D(5,1,2,8)            -60.0            estimate D2E/DX2                !
 --------------------------------------------------------------------------------
 Trust Radius=3.00D-01 FncErr=1.00D-07 GrdErr=1.00D-07 EigMax=2.50D+02 EigMin=1.00D-04
 Number of steps in this run=     38 maximum allowed number of steps=    100.
 GradGradGradGradGradGradGradGradGradGradGradGradGradGradGradGradGradGrad

                          Input orientation:                          
 ---------------------------------------------------------------------
 Center     Atomic      Atomic             Coordinates (Angstroms)
 Number     Number       Type             X           Y           Z
 ---------------------------------------------------------------------
      1          6           0        0.000000    0.000000   -0.750109
      2          6           0        0.000000    0.000000    0.750109
      3          1           0        0.000000    1.044903   -1.145214
      4          1           0        0.904912   -0.522451   -1.145214
      5          1           0       -0.904912   -0.522451   -1.145214
      6          1           0        0.000000   -1.044903    1.145214
      7          1           0        0.904912    0.522451    1.145214
      8          1           0       -0.904912    0.522451    1.145214
 ---------------------------------------------------------------------
                    Distance matrix (angstroms):
                    1          2          3          4          5
     1  C    0.000000
     2  C    1.500219   0.000000
     3  H    1.117108   2.164272   0.000000
     4  H    1.117108   2.164272   1.809825   0.000000
     5  H    1.117108   2.164272   1.809825   1.809825   0.000000
     6  H    2.164272   1.117108   3.100540   2.517515   2.517515
     7  H    2.164272   1.117108   2.517515   2.517515   3.100540
     8  H    2.164272   1.117108   2.517515   3.100540   2.517515
                    6          7          8
     6  H    0.000000
     7  H    1.809825   0.000000
     8  H    1.809825   1.809825   0.000000
 Stoichiometry    C2H6
 Framework group  D3D[C3(C.C),3SGD(H2)]
 Deg. of freedom     3
 Full point group                 D3D     NOp  12
 Largest Abelian subgroup         C2H     NOp   4
 Largest concise Abelian subgroup C2H     NOp   4
                         Standard orientation:                         
 ---------------------------------------------------------------------
 Center     Atomic      Atomic             Coordinates (Angstroms)
 Number     Number       Type             X           Y           Z
 ---------------------------------------------------------------------
      1          6           0        0.000000    0.000000    0.750109
      2          6           0        0.000000    0.000000   -0.750109
      3          1           0        0.000000    1.044903    1.145214
      4          1           0       -0.904912   -0.522451    1.145214
      5          1           0        0.904912   -0.522451    1.145214
      6          1           0        0.000000   -1.044903   -1.145214
      7          1           0       -0.904912    0.522451   -1.145214
      8          1           0        0.904912    0.522451   -1.145214
 ---------------------------------------------------------------------
 Rotational constants (GHZ):          76.5471593          20.4311596          20.4311596
 Standard basis: 6-31G (6D, 7F)
 There are    11 symmetry adapted cartesian basis functions of AG  symmetry.
 There are     4 symmetry adapted cartesian basis functions of BG  symmetry.
 There are     4 symmetry adapted cartesian basis functions of AU  symmetry.
 There are    11 symmetry adapted cartesian basis functions of BU  symmetry.
 There are    11 symmetry adapted basis functions of AG  symmetry.
 There are     4 symmetry adapted basis functions of BG  symmetry.
 There are     4 symmetry adapted basis functions of AU  symmetry.
 There are    11 symmetry adapted basis functions of BU  symmetry.
    30 basis functions,    68 primitive gaussians,    30 cartesian basis functions
     9 alpha electrons        9 beta electrons
       nuclear repulsion energy        42.0814768300 Hartrees.
 NAtoms=    8 NActive=    8 NUniq=    2 SFac= 4.00D+00 NAtFMM=   60 NAOKFM=F Big=F
 Integral buffers will be    131072 words long.
 Raffenetti 1 integral format.
 Two-electron integral symmetry is turned on.
 One-electron integrals computed using PRISM.
 NBasis=    30 RedAO= T EigKep=  9.70D-03  NBF=    11     4     4    11
 NBsUse=    30 1.00D-06 EigRej= -1.00D+00 NBFU=    11     4     4    11
 ExpMin= 1.61D-01 ExpMax= 3.05D+03 ExpMxC= 4.57D+02 IAcc=3 IRadAn=         5 AccDes= 0.00D+00
 Harris functional with IExCor=  205 and IRadAn=       5 diagonalized for initial guess.
 HarFok:  IExCor=  205 AccDes= 0.00D+00 IRadAn=         5 IDoV= 1 UseB2=F ITyADJ=14
 ICtDFT=  3500011 ScaDFX=  1.000000  1.000000  1.000000  1.000000
 FoFCou: FMM=F IPFlag=           0 FMFlag=      100000 FMFlg1=           0
         NFxFlg=           0 DoJE=T BraDBF=F KetDBF=T FulRan=T
         wScrn=  0.000000 ICntrl=       500 IOpCl=  0 I1Cent=   200000004 NGrid=           0
         NMat0=    1 NMatS0=      1 NMatT0=    0 NMatD0=    1 NMtDS0=    0 NMtDT0=    0
 Petite list used in FoFCou.
 Initial guess orbital symmetries:
       Occupied  (A2U) (A1G) (A1G) (A2U) (EU) (EU) (A1G) (EG) (EG)
       Virtual   (A1G) (EU) (EU) (A2U) (EG) (EG) (A2U) (A1G) (EU)
                 (EU) (EG) (EG) (A2U) (A1G) (EU) (EU) (A2U) (EG)
                 (EG) (A1G) (A2U)
 The electronic state of the initial guess is 1-A1G.
 Keep R1 ints in memory in symmetry-blocked form, NReq=927648.
 Requested convergence on RMS density matrix=1.00D-08 within 128 cycles.
 Requested convergence on MAX density matrix=1.00D-06.
 Requested convergence on             energy=1.00D-06.
 No special actions if energy rises.
 SCF Done:  E(RHF) =  -79.1928139402     A.U. after    8 cycles
            NFock=  8  Conv=0.70D-08     -V/T= 2.0008

 **********************************************************************

            Population analysis using the SCF Density.

 **********************************************************************

 Orbital symmetries:
       Occupied  (A1G) (A2U) (A1G) (A2U) (EU) (EU) (A1G) (EG) (EG)
       Virtual   (A1G) (A2U) (EU) (EU) (EG) (EG) (A2U) (A1G) (EU)
                 (EU) (EG) (EG) (A2U) (A1G) (EU) (EU) (A2U) (EG)
                 (EG) (A1G) (A2U)
 The electronic state is 1-A1G.
 Alpha  occ. eigenvalues --  -11.22128 -11.22064  -1.02420  -0.83018  -0.59561
 Alpha  occ. eigenvalues --   -0.59561  -0.51139  -0.47452  -0.47452
 Alpha virt. eigenvalues --    0.23499   0.29727   0.30285   0.30285   0.33031
 Alpha virt. eigenvalues --    0.33031   0.41118   0.72564   0.77755   0.77755
 Alpha virt. eigenvalues --    0.86881   0.86881   0.97053   1.17684   1.18263
 Alpha virt. eigenvalues --    1.18263   1.22790   1.24476   1.24476   1.30064
 Alpha virt. eigenvalues --    1.69603
          Condensed to atoms (all electrons):
               1          2          3          4          5          6
     1  C    5.164057   0.253132   0.388231   0.388231   0.388231  -0.045001
     2  C    0.253132   5.164057  -0.045001  -0.045001  -0.045001   0.388231
     3  H    0.388231  -0.045001   0.568494  -0.029205  -0.029205   0.004317
     4  H    0.388231  -0.045001  -0.029205   0.568494  -0.029205  -0.003295
     5  H    0.388231  -0.045001  -0.029205  -0.029205   0.568494  -0.003295
     6  H   -0.045001   0.388231   0.004317  -0.003295  -0.003295   0.568494
     7  H   -0.045001   0.388231  -0.003295  -0.003295   0.004317  -0.029205
     8  H   -0.045001   0.388231  -0.003295   0.004317  -0.003295  -0.029205
               7          8
     1  C   -0.045001  -0.045001
     2  C    0.388231   0.388231
     3  H   -0.003295  -0.003295
     4  H   -0.003295   0.004317
     5  H    0.004317  -0.003295
     6  H   -0.029205  -0.029205
     7  H    0.568494  -0.029205
     8  H   -0.029205   0.568494
 Mulliken charges:
               1
     1  C   -0.446879
     2  C   -0.446879
     3  H    0.148960
     4  H    0.148960
     5  H    0.148960
     6  H    0.148960
     7  H    0.148960
     8  H    0.148960
 Sum of Mulliken charges =   0.00000
 Mulliken charges with hydrogens summed into heavy atoms:
               1
     1  C    0.000000
     2  C    0.000000
 Electronic spatial extent (au):  <R**2>=            110.0073
 Charge=              0.0000 electrons
 Dipole moment (field-independent basis, Debye):
    X=              0.0000    Y=              0.0000    Z=              0.0000  Tot=              0.0000
 Quadrupole moment (field-independent basis, Debye-Ang):
   XX=            -15.1503   YY=            -15.1503   ZZ=            -15.9697
   XY=              0.0000   XZ=              0.0000   YZ=              0.0000
 Traceless Quadrupole moment (field-independent basis, Debye-Ang):
   XX=              0.2731   YY=              0.2731   ZZ=             -0.5462
   XY=              0.0000   XZ=              0.0000   YZ=              0.0000
 Octapole moment (field-independent basis, Debye-Ang**2):
  XXX=              0.0000  YYY=              0.0000  ZZZ=              0.0000  XYY=              0.0000
  XXY=              0.0000  XXZ=              0.0000  XZZ=              0.0000  YZZ=              0.0000
  YYZ=              0.0000  XYZ=              0.0000
 Hexadecapole moment (field-independent basis, Debye-Ang**3):
 XXXX=            -30.2835 YYYY=            -30.2835 ZZZZ=            -93.4608 XXXY=              0.0000
 XXXZ=              0.0000 YYYX=              0.0000 YYYZ=              1.2905 ZZZX=              0.0000
 ZZZY=              0.0000 XXYY=            -10.0945 XXZZ=            -19.6364 YYZZ=            -19.6364
 XXYZ=             -1.2905 YYXZ=              0.0000 ZZXY=              0.0000
 N-N= 4.208147682999D+01 E-N=-2.677852461404D+02  KE= 7.913255598181D+01
 Symmetry AG   KE= 3.907667535579D+01
 Symmetry BG   KE= 2.015701815220D+00
 Symmetry AU   KE= 1.750676963334D+00
 Symmetry BU   KE= 3.628950184747D+01
 Calling FoFJK, ICntrl=      2127 FMM=F ISym2X=1 I1Cent= 0 IOpClX= 0 NMat=1 NMatS=1 NMatT=0.
 ***** Axes restored to original set *****
 -------------------------------------------------------------------
 Center     Atomic                   Forces (Hartrees/Bohr)
 Number     Number              X              Y              Z
 -------------------------------------------------------------------
      1        6           0.000000000    0.000000000   -0.033028995
      2        6           0.000000000    0.000000000    0.033028995
      3        1           0.000000000   -0.020959506    0.004486342
      4        1          -0.018151465    0.010479753    0.004486342
      5        1           0.018151465    0.010479753    0.004486342
      6        1           0.000000000    0.020959506   -0.004486342
      7        1          -0.018151465   -0.010479753   -0.004486342
      8        1           0.018151465   -0.010479753   -0.004486342
 -------------------------------------------------------------------
 Cartesian Forces:  Max     0.033028995 RMS     0.014344566

 GradGradGradGradGradGradGradGradGradGradGradGradGradGradGradGradGradGrad
 Berny optimization.
 FormGI is forming the generalized inverse of G from B-inverse, IUseBI=4.
 Internal  Forces:  Max     0.021191530 RMS     0.010706728
 Search for a local minimum.
 Step number   1 out of a maximum of   38
 All quantities printed in internal units (Hartrees-Bohrs-Radians)
 Mixed Optimization -- RFO/linear search
 Second derivative matrix not updated -- first step.
 ITU=  0
     Eigenvalues ---    0.00763   0.05841   0.05841   0.05841   0.05841
     Eigenvalues ---    0.16000   0.16000   0.16000   0.16000   0.16000
     Eigenvalues ---    0.16000   0.31859   0.31859   0.31859   0.31859
     Eigenvalues ---    0.31859   0.31859   0.32354
 RFO step:  Lambda=-1.01224879D-02 EMin= 7.63056396D-03
 Linear search not attempted -- first point.
 Iteration  1 RMS(Cart)=  0.04082451 RMS(Int)=  0.00057025
 Iteration  2 RMS(Cart)=  0.00072696 RMS(Int)=  0.00011311
 Iteration  3 RMS(Cart)=  0.00000027 RMS(Int)=  0.00011311
 ClnCor:  largest displacement from symmetrization is 3.38D-09 for atom     5.
 Variable       Old X    -DE/DX   Delta X   Delta X   Delta X     New X
                                 (Linear)    (Quad)   (Total)
    R1        2.83500   0.01957   0.00000   0.05865   0.05865   2.89365
    R2        2.11103  -0.02119   0.00000  -0.06447  -0.06447   2.04656
    R3        2.11103  -0.02119   0.00000  -0.06447  -0.06447   2.04656
    R4        2.11103  -0.02119   0.00000  -0.06447  -0.06447   2.04656
    R5        2.11103  -0.02119   0.00000  -0.06447  -0.06447   2.04656
    R6        2.11103  -0.02119   0.00000  -0.06447  -0.06447   2.04656
    R7        2.11103  -0.02119   0.00000  -0.06447  -0.06447   2.04656
    A1        1.93230   0.00325   0.00000   0.01908   0.01891   1.95121
    A2        1.93230   0.00325   0.00000   0.01908   0.01891   1.95121
    A3        1.93230   0.00325   0.00000   0.01908   0.01891   1.95121
    A4        1.88847  -0.00339   0.00000  -0.01994  -0.02010   1.86837
    A5        1.88847  -0.00339   0.00000  -0.01994  -0.02010   1.86837
    A6        1.88847  -0.00339   0.00000  -0.01994  -0.02010   1.86837
    A7        1.93230   0.00325   0.00000   0.01908   0.01891   1.95121
    A8        1.93230   0.00325   0.00000   0.01908   0.01891   1.95121
    A9        1.93230   0.00325   0.00000   0.01908   0.01891   1.95121
   A10        1.88847  -0.00339   0.00000  -0.01994  -0.02010   1.86837
   A11        1.88847  -0.00339   0.00000  -0.01994  -0.02010   1.86837
   A12        1.88847  -0.00339   0.00000  -0.01994  -0.02010   1.86837
    D1        3.14159   0.00000   0.00000   0.00000   0.00000   3.14159
    D2       -1.04720   0.00000   0.00000   0.00000   0.00000  -1.04720
    D3        1.04720   0.00000   0.00000   0.00000   0.00000   1.04720
    D4       -1.04720   0.00000   0.00000   0.00000   0.00000  -1.04720
    D5        1.04720   0.00000   0.00000   0.00000   0.00000   1.04720
    D6        3.14159   0.00000   0.00000   0.00000   0.00000   3.14159
    D7        1.04720   0.00000   0.00000   0.00000   0.00000   1.04720
    D8        3.14159   0.00000   0.00000   0.00000   0.00000   3.14159
    D9       -1.04720   0.00000   0.00000   0.00000   0.00000  -1.04720
         Item               Value     Threshold  Converged?
 Maximum Force            0.021192     0.000450     NO 
 RMS     Force            0.010707     0.000300     NO 
 Maximum Displacement     0.074327     0.001800     NO 
 RMS     Displacement     0.040420     0.001200     NO 
 Predicted change in Energy=-5.227964D-03
 GradGradGradGradGradGradGradGradGradGradGradGradGradGradGradGradGradGrad

                          Input orientation:                          
 ---------------------------------------------------------------------
 Center     Atomic      Atomic             Coordinates (Angstroms)
 Number     Number       Type             X           Y           Z
 ---------------------------------------------------------------------
      1          6           0        0.000000    0.000000   -0.765628
      2          6           0        0.000000    0.000000    0.765628
      3          1           0        0.000000    1.005571   -1.167748
      4          1           0        0.870850   -0.502785   -1.167748
      5          1           0       -0.870850   -0.502785   -1.167748
      6          1           0        0.000000   -1.005571    1.167748
      7          1           0        0.870850    0.502785    1.167748
      8          1           0       -0.870850    0.502785    1.167748
 ---------------------------------------------------------------------
                    Distance matrix (angstroms):
                    1          2          3          4          5
     1  C    0.000000
     2  C    1.531255   0.000000
     3  H    1.082992   2.179246   0.000000
     4  H    1.082992   2.179246   1.741699   0.000000
     5  H    1.082992   2.179246   1.741699   1.741699   0.000000
     6  H    2.179246   1.082992   3.082082   2.542777   2.542777
     7  H    2.179246   1.082992   2.542777   2.542777   3.082082
     8  H    2.179246   1.082992   2.542777   3.082082   2.542777
                    6          7          8
     6  H    0.000000
     7  H    1.741699   0.000000
     8  H    1.741699   1.741699   0.000000
 Stoichiometry    C2H6
 Framework group  D3D[C3(C.C),3SGD(H2)]
 Deg. of freedom     3
 Full point group                 D3D     NOp  12
 Largest Abelian subgroup         C2H     NOp   4
 Largest concise Abelian subgroup C2H     NOp   4
                         Standard orientation:                         
 ---------------------------------------------------------------------
 Center     Atomic      Atomic             Coordinates (Angstroms)
 Number     Number       Type             X           Y           Z
 ---------------------------------------------------------------------
      1          6           0        0.000000    0.000000    0.765628
      2          6           0        0.000000    0.000000   -0.765628
      3          1           0        0.000000    1.005571    1.167748
      4          1           0       -0.870850   -0.502785    1.167748
      5          1           0        0.870850   -0.502785    1.167748
      6          1           0        0.000000   -1.005571   -1.167748
      7          1           0       -0.870850    0.502785   -1.167748
      8          1           0        0.870850    0.502785   -1.167748
 ---------------------------------------------------------------------
 Rotational constants (GHZ):          82.6524525          19.9191243          19.9191243
 Standard basis: 6-31G (6D, 7F)
 There are    11 symmetry adapted cartesian basis functions of AG  symmetry.
 There are     4 symmetry adapted cartesian basis functions of BG  symmetry.
 There are     4 symmetry adapted cartesian basis functions of AU  symmetry.
 There are    11 symmetry adapted cartesian basis functions of BU  symmetry.
 There are    11 symmetry adapted basis functions of AG  symmetry.
 There are     4 symmetry adapted basis functions of BG  symmetry.
 There are     4 symmetry adapted basis functions of AU  symmetry.
 There are    11 symmetry adapted basis functions of BU  symmetry.
    30 basis functions,    68 primitive gaussians,    30 cartesian basis functions
     9 alpha electrons        9 beta electrons
       nuclear repulsion energy        42.3599626719 Hartrees.
 NAtoms=    8 NActive=    8 NUniq=    2 SFac= 4.00D+00 NAtFMM=   60 NAOKFM=F Big=F
 Integral buffers will be    131072 words long.
 Raffenetti 1 integral format.
 Two-electron integral symmetry is turned on.
 One-electron integrals computed using PRISM.
 NBasis=    30 RedAO= T EigKep=  1.01D-02  NBF=    11     4     4    11
 NBsUse=    30 1.00D-06 EigRej= -1.00D+00 NBFU=    11     4     4    11
 Initial guess from the checkpoint file:  "D:\APPs\lihaibei\molecules-use\CH3CH3-D3d.chk"
 B after Tr=     0.000000    0.000000    0.000000
         Rot=    1.000000    0.000000    0.000000    0.000000 Ang=   0.00 deg.
 Initial guess orbital symmetries:
       Occupied  (A1G) (A2U) (A1G) (A2U) (EU) (EU) (A1G) (EG) (EG)
       Virtual   (A1G) (A2U) (EU) (EU) (EG) (EG) (A2U) (A1G) (EU)
                 (EU) (EG) (EG) (A2U) (A1G) (EU) (EU) (A2U) (EG)
                 (EG) (A1G) (A2U)
 ExpMin= 1.61D-01 ExpMax= 3.05D+03 ExpMxC= 4.57D+02 IAcc=3 IRadAn=         5 AccDes= 0.00D+00
 Harris functional with IExCor=  205 and IRadAn=       5 diagonalized for initial guess.
 HarFok:  IExCor=  205 AccDes= 0.00D+00 IRadAn=         5 IDoV= 1 UseB2=F ITyADJ=14
 ICtDFT=  3500011 ScaDFX=  1.000000  1.000000  1.000000  1.000000
 FoFCou: FMM=F IPFlag=           0 FMFlag=      100000 FMFlg1=           0
         NFxFlg=           0 DoJE=T BraDBF=F KetDBF=T FulRan=T
         wScrn=  0.000000 ICntrl=       500 IOpCl=  0 I1Cent=   200000004 NGrid=           0
         NMat0=    1 NMatS0=      1 NMatT0=    0 NMatD0=    1 NMtDS0=    0 NMtDT0=    0
 Petite list used in FoFCou.
 Keep R1 ints in memory in symmetry-blocked form, NReq=927648.
 Requested convergence on RMS density matrix=1.00D-08 within 128 cycles.
 Requested convergence on MAX density matrix=1.00D-06.
 Requested convergence on             energy=1.00D-06.
 No special actions if energy rises.
 SCF Done:  E(RHF) =  -79.1974323769     A.U. after    8 cycles
            NFock=  8  Conv=0.29D-08     -V/T= 1.9981
 Calling FoFJK, ICntrl=      2127 FMM=F ISym2X=1 I1Cent= 0 IOpClX= 0 NMat=1 NMatS=1 NMatT=0.
 ***** Axes restored to original set *****
 -------------------------------------------------------------------
 Center     Atomic                   Forces (Hartrees/Bohr)
 Number     Number              X              Y              Z
 -------------------------------------------------------------------
      1        6           0.000000000    0.000000000   -0.000734376
      2        6           0.000000000    0.000000000    0.000734376
      3        1           0.000000000    0.001924793    0.001326502
      4        1           0.001666920   -0.000962396    0.001326502
      5        1          -0.001666920   -0.000962397    0.001326502
      6        1           0.000000000   -0.001924793   -0.001326502
      7        1           0.001666920    0.000962397   -0.001326502
      8        1          -0.001666920    0.000962396   -0.001326502
 -------------------------------------------------------------------
 Cartesian Forces:  Max     0.001924793 RMS     0.001187877

 GradGradGradGradGradGradGradGradGradGradGradGradGradGradGradGradGradGrad
 Berny optimization.
 Using GEDIIS/GDIIS optimizer.
 FormGI is forming the generalized inverse of G from B-inverse, IUseBI=4.
 Internal  Forces:  Max     0.003245131 RMS     0.001517192
 Search for a local minimum.
 Step number   2 out of a maximum of   38
 All quantities printed in internal units (Hartrees-Bohrs-Radians)
 Mixed Optimization -- RFO/linear search
 Update second derivatives using D2CorX and points    1    2
 DE= -4.62D-03 DEPred=-5.23D-03 R= 8.83D-01
 TightC=F SS=  1.41D+00  RLast= 1.82D-01 DXNew= 5.0454D-01 5.4454D-01
 Trust test= 8.83D-01 RLast= 1.82D-01 DXMaxT set to 5.05D-01
 ITU=  1  0
 Use linear search instead of GDIIS.
     Eigenvalues ---    0.00763   0.05648   0.05648   0.05648   0.05648
     Eigenvalues ---    0.16000   0.16000   0.16000   0.16000   0.16000
     Eigenvalues ---    0.16937   0.31816   0.31859   0.31859   0.31859
     Eigenvalues ---    0.31859   0.31859   0.35208
 RFO step:  Lambda=-1.62302992D-04 EMin= 7.63056396D-03
 Quartic linear search produced a step of -0.09526.
 Iteration  1 RMS(Cart)=  0.01085979 RMS(Int)=  0.00006090
 Iteration  2 RMS(Cart)=  0.00006867 RMS(Int)=  0.00001840
 Iteration  3 RMS(Cart)=  0.00000000 RMS(Int)=  0.00001840
 ClnCor:  largest displacement from symmetrization is 6.54D-09 for atom     4.
 Variable       Old X    -DE/DX   Delta X   Delta X   Delta X     New X
                                 (Linear)    (Quad)   (Total)
    R1        2.89365  -0.00325  -0.00559  -0.00194  -0.00753   2.88612
    R2        2.04656   0.00129   0.00614  -0.00417   0.00197   2.04853
    R3        2.04656   0.00129   0.00614  -0.00417   0.00197   2.04853
    R4        2.04656   0.00129   0.00614  -0.00417   0.00197   2.04853
    R5        2.04656   0.00129   0.00614  -0.00417   0.00197   2.04853
    R6        2.04656   0.00129   0.00614  -0.00417   0.00197   2.04853
    R7        2.04656   0.00129   0.00614  -0.00417   0.00197   2.04853
    A1        1.95121  -0.00184  -0.00180  -0.00792  -0.00975   1.94146
    A2        1.95121  -0.00184  -0.00180  -0.00792  -0.00975   1.94146
    A3        1.95121  -0.00184  -0.00180  -0.00792  -0.00975   1.94146
    A4        1.86837   0.00199   0.00192   0.00857   0.01045   1.87882
    A5        1.86837   0.00199   0.00192   0.00857   0.01045   1.87882
    A6        1.86837   0.00199   0.00192   0.00857   0.01045   1.87882
    A7        1.95121  -0.00184  -0.00180  -0.00792  -0.00975   1.94146
    A8        1.95121  -0.00184  -0.00180  -0.00792  -0.00975   1.94146
    A9        1.95121  -0.00184  -0.00180  -0.00792  -0.00975   1.94146
   A10        1.86837   0.00199   0.00192   0.00857   0.01045   1.87882
   A11        1.86837   0.00199   0.00192   0.00857   0.01045   1.87882
   A12        1.86837   0.00199   0.00192   0.00857   0.01045   1.87882
    D1        3.14159   0.00000   0.00000   0.00000   0.00000   3.14159
    D2       -1.04720   0.00000   0.00000   0.00000   0.00000  -1.04720
    D3        1.04720   0.00000   0.00000   0.00000   0.00000   1.04720
    D4       -1.04720   0.00000   0.00000   0.00000   0.00000  -1.04720
    D5        1.04720   0.00000   0.00000   0.00000   0.00000   1.04720
    D6        3.14159   0.00000   0.00000   0.00000   0.00000   3.14159
    D7        1.04720   0.00000   0.00000   0.00000   0.00000   1.04720
    D8        3.14159   0.00000   0.00000   0.00000   0.00000   3.14159
    D9       -1.04720   0.00000   0.00000   0.00000   0.00000  -1.04720
         Item               Value     Threshold  Converged?
 Maximum Force            0.003245     0.000450     NO 
 RMS     Force            0.001517     0.000300     NO 
 Maximum Displacement     0.021609     0.001800     NO 
 RMS     Displacement     0.010910     0.001200     NO 
 Predicted change in Energy=-1.394819D-04
 GradGradGradGradGradGradGradGradGradGradGradGradGradGradGradGradGradGrad

                          Input orientation:                          
 ---------------------------------------------------------------------
 Center     Atomic      Atomic             Coordinates (Angstroms)
 Number     Number       Type             X           Y           Z
 ---------------------------------------------------------------------
      1          6           0        0.000000    0.000000   -0.763635
      2          6           0        0.000000    0.000000    0.763635
      3          1           0        0.000000    1.010416   -1.156313
      4          1           0        0.875046   -0.505208   -1.156313
      5          1           0       -0.875046   -0.505208   -1.156313
      6          1           0        0.000000   -1.010416    1.156313
      7          1           0        0.875046    0.505208    1.156313
      8          1           0       -0.875046    0.505208    1.156313
 ---------------------------------------------------------------------
                    Distance matrix (angstroms):
                    1          2          3          4          5
     1  C    0.000000
     2  C    1.527270   0.000000
     3  H    1.084037   2.169595   0.000000
     4  H    1.084037   2.169595   1.750092   0.000000
     5  H    1.084037   2.169595   1.750092   1.750092   0.000000
     6  H    2.169595   1.084037   3.071156   2.523724   2.523724
     7  H    2.169595   1.084037   2.523724   2.523724   3.071156
     8  H    2.169595   1.084037   2.523724   3.071156   2.523724
                    6          7          8
     6  H    0.000000
     7  H    1.750092   0.000000
     8  H    1.750092   1.750092   0.000000
 Stoichiometry    C2H6
 Framework group  D3D[C3(C.C),3SGD(H2)]
 Deg. of freedom     3
 Full point group                 D3D     NOp  12
 Largest Abelian subgroup         C2H     NOp   4
 Largest concise Abelian subgroup C2H     NOp   4
                         Standard orientation:                         
 ---------------------------------------------------------------------
 Center     Atomic      Atomic             Coordinates (Angstroms)
 Number     Number       Type             X           Y           Z
 ---------------------------------------------------------------------
      1          6           0        0.000000    0.000000    0.763635
      2          6           0        0.000000    0.000000   -0.763635
      3          1           0        0.000000    1.010416    1.156313
      4          1           0       -0.875046   -0.505208    1.156313
      5          1           0        0.875046   -0.505208    1.156313
      6          1           0        0.000000   -1.010416   -1.156313
      7          1           0       -0.875046    0.505208   -1.156313
      8          1           0        0.875046    0.505208   -1.156313
 ---------------------------------------------------------------------
 Rotational constants (GHZ):          81.8616288          20.0808210          20.0808210
 Standard basis: 6-31G (6D, 7F)
 There are    11 symmetry adapted cartesian basis functions of AG  symmetry.
 There are     4 symmetry adapted cartesian basis functions of BG  symmetry.
 There are     4 symmetry adapted cartesian basis functions of AU  symmetry.
 There are    11 symmetry adapted cartesian basis functions of BU  symmetry.
 There are    11 symmetry adapted basis functions of AG  symmetry.
 There are     4 symmetry adapted basis functions of BG  symmetry.
 There are     4 symmetry adapted basis functions of AU  symmetry.
 There are    11 symmetry adapted basis functions of BU  symmetry.
    30 basis functions,    68 primitive gaussians,    30 cartesian basis functions
     9 alpha electrons        9 beta electrons
       nuclear repulsion energy        42.4168790974 Hartrees.
 NAtoms=    8 NActive=    8 NUniq=    2 SFac= 4.00D+00 NAtFMM=   60 NAOKFM=F Big=F
 Integral buffers will be    131072 words long.
 Raffenetti 1 integral format.
 Two-electron integral symmetry is turned on.
 One-electron integrals computed using PRISM.
 NBasis=    30 RedAO= T EigKep=  9.89D-03  NBF=    11     4     4    11
 NBsUse=    30 1.00D-06 EigRej= -1.00D+00 NBFU=    11     4     4    11
 Initial guess from the checkpoint file:  "D:\APPs\lihaibei\molecules-use\CH3CH3-D3d.chk"
 B after Tr=     0.000000    0.000000    0.000000
         Rot=    1.000000    0.000000    0.000000    0.000000 Ang=   0.00 deg.
 Initial guess orbital symmetries:
       Occupied  (A1G) (A2U) (A1G) (A2U) (EU) (EU) (A1G) (EG) (EG)
       Virtual   (A1G) (A2U) (EU) (EU) (EG) (EG) (A2U) (A1G) (EU)
                 (EU) (EG) (EG) (A2U) (EU) (EU) (A1G) (EG) (EG)
                 (A2U) (A1G) (A2U)
 ExpMin= 1.61D-01 ExpMax= 3.05D+03 ExpMxC= 4.57D+02 IAcc=3 IRadAn=         5 AccDes= 0.00D+00
 Harris functional with IExCor=  205 and IRadAn=       5 diagonalized for initial guess.
 HarFok:  IExCor=  205 AccDes= 0.00D+00 IRadAn=         5 IDoV= 1 UseB2=F ITyADJ=14
 ICtDFT=  3500011 ScaDFX=  1.000000  1.000000  1.000000  1.000000
 FoFCou: FMM=F IPFlag=           0 FMFlag=      100000 FMFlg1=           0
         NFxFlg=           0 DoJE=T BraDBF=F KetDBF=T FulRan=T
         wScrn=  0.000000 ICntrl=       500 IOpCl=  0 I1Cent=   200000004 NGrid=           0
         NMat0=    1 NMatS0=      1 NMatT0=    0 NMatD0=    1 NMtDS0=    0 NMtDT0=    0
 Petite list used in FoFCou.
 Keep R1 ints in memory in symmetry-blocked form, NReq=927648.
 Requested convergence on RMS density matrix=1.00D-08 within 128 cycles.
 Requested convergence on MAX density matrix=1.00D-06.
 Requested convergence on             energy=1.00D-06.
 No special actions if energy rises.
 SCF Done:  E(RHF) =  -79.1975678468     A.U. after    7 cycles
            NFock=  7  Conv=0.25D-08     -V/T= 1.9981
 Calling FoFJK, ICntrl=      2127 FMM=F ISym2X=1 I1Cent= 0 IOpClX= 0 NMat=1 NMatS=1 NMatT=0.
 ***** Axes restored to original set *****
 -------------------------------------------------------------------
 Center     Atomic                   Forces (Hartrees/Bohr)
 Number     Number              X              Y              Z
 -------------------------------------------------------------------
      1        6           0.000000000    0.000000000   -0.001219143
      2        6           0.000000000    0.000000000    0.001219143
      3        1           0.000000000    0.000322424   -0.000078258
      4        1           0.000279227   -0.000161212   -0.000078258
      5        1          -0.000279227   -0.000161212   -0.000078258
      6        1           0.000000000   -0.000322424    0.000078258
      7        1           0.000279227    0.000161212    0.000078258
      8        1          -0.000279227    0.000161212    0.000078258
 -------------------------------------------------------------------
 Cartesian Forces:  Max     0.001219143 RMS     0.000389075

 GradGradGradGradGradGradGradGradGradGradGradGradGradGradGradGradGradGrad
 Berny optimization.
 Using GEDIIS/GDIIS optimizer.
 FormGI is forming the generalized inverse of G from B-inverse, IUseBI=4.
 Internal  Forces:  Max     0.001453918 RMS     0.000315411
 Search for a local minimum.
 Step number   3 out of a maximum of   38
 All quantities printed in internal units (Hartrees-Bohrs-Radians)
 Mixed Optimization -- En-DIIS/RFO-DIIS
 Update second derivatives using D2CorX and points    1    2    3
 DE= -1.35D-04 DEPred=-1.39D-04 R= 9.71D-01
 TightC=F SS=  1.41D+00  RLast= 3.61D-02 DXNew= 8.4853D-01 1.0841D-01
 Trust test= 9.71D-01 RLast= 3.61D-02 DXMaxT set to 5.05D-01
 ITU=  1  1  0
 Use linear search instead of GDIIS.
     Eigenvalues ---    0.00763   0.05747   0.05747   0.05747   0.05747
     Eigenvalues ---    0.15709   0.16000   0.16000   0.16000   0.16000
     Eigenvalues ---    0.16000   0.31859   0.31859   0.31859   0.31859
     Eigenvalues ---    0.31859   0.32069   0.39161
 RFO step:  Lambda=-8.51649472D-06 EMin= 7.63056396D-03
 Quartic linear search produced a step of -0.00642.
 Iteration  1 RMS(Cart)=  0.00109735 RMS(Int)=  0.00000032
 Iteration  2 RMS(Cart)=  0.00000040 RMS(Int)=  0.00000010
 ClnCor:  largest displacement from symmetrization is 1.74D-08 for atom     6.
 Variable       Old X    -DE/DX   Delta X   Delta X   Delta X     New X
                                 (Linear)    (Quad)   (Total)
    R1        2.88612   0.00145   0.00005   0.00420   0.00425   2.89037
    R2        2.04853   0.00033  -0.00001   0.00106   0.00105   2.04958
    R3        2.04853   0.00033  -0.00001   0.00106   0.00105   2.04958
    R4        2.04853   0.00033  -0.00001   0.00106   0.00105   2.04958
    R5        2.04853   0.00033  -0.00001   0.00106   0.00105   2.04958
    R6        2.04853   0.00033  -0.00001   0.00106   0.00105   2.04958
    R7        2.04853   0.00033  -0.00001   0.00106   0.00105   2.04958
    A1        1.94146  -0.00004   0.00006  -0.00059  -0.00053   1.94094
    A2        1.94146  -0.00004   0.00006  -0.00059  -0.00053   1.94094
    A3        1.94146  -0.00004   0.00006  -0.00059  -0.00053   1.94094
    A4        1.87882   0.00004  -0.00007   0.00063   0.00056   1.87938
    A5        1.87882   0.00004  -0.00007   0.00063   0.00056   1.87938
    A6        1.87882   0.00004  -0.00007   0.00063   0.00056   1.87938
    A7        1.94146  -0.00004   0.00006  -0.00059  -0.00053   1.94094
    A8        1.94146  -0.00004   0.00006  -0.00059  -0.00053   1.94094
    A9        1.94146  -0.00004   0.00006  -0.00059  -0.00053   1.94094
   A10        1.87882   0.00004  -0.00007   0.00063   0.00056   1.87938
   A11        1.87882   0.00004  -0.00007   0.00063   0.00056   1.87938
   A12        1.87882   0.00004  -0.00007   0.00063   0.00056   1.87938
    D1        3.14159   0.00000   0.00000   0.00000   0.00000   3.14159
    D2       -1.04720   0.00000   0.00000   0.00000   0.00000  -1.04720
    D3        1.04720   0.00000   0.00000   0.00000   0.00000   1.04720
    D4       -1.04720   0.00000   0.00000   0.00000   0.00000  -1.04720
    D5        1.04720   0.00000   0.00000   0.00000   0.00000   1.04720
    D6        3.14159   0.00000   0.00000   0.00000   0.00000   3.14159
    D7        1.04720   0.00000   0.00000   0.00000   0.00000   1.04720
    D8       -3.14159   0.00000   0.00000   0.00000   0.00000  -3.14159
    D9       -1.04720   0.00000   0.00000   0.00000   0.00000  -1.04720
         Item               Value     Threshold  Converged?
 Maximum Force            0.001454     0.000450     NO 
 RMS     Force            0.000315     0.000300     NO 
 Maximum Displacement     0.002125     0.001800     NO 
 RMS     Displacement     0.001097     0.001200     YES
 Predicted change in Energy=-4.263155D-06
 GradGradGradGradGradGradGradGradGradGradGradGradGradGradGradGradGradGrad

                          Input orientation:                          
 ---------------------------------------------------------------------
 Center     Atomic      Atomic             Coordinates (Angstroms)
 Number     Number       Type             X           Y           Z
 ---------------------------------------------------------------------
      1          6           0        0.000000    0.000000   -0.764760
      2          6           0        0.000000    0.000000    0.764760
      3          1           0        0.000000    1.011138   -1.157107
      4          1           0        0.875671   -0.505569   -1.157107
      5          1           0       -0.875671   -0.505569   -1.157107
      6          1           0        0.000000   -1.011138    1.157107
      7          1           0        0.875671    0.505569    1.157107
      8          1           0       -0.875671    0.505569    1.157107
 ---------------------------------------------------------------------
                    Distance matrix (angstroms):
                    1          2          3          4          5
     1  C    0.000000
     2  C    1.529520   0.000000
     3  H    1.084590   2.171629   0.000000
     4  H    1.084590   2.171629   1.751343   0.000000
     5  H    1.084590   2.171629   1.751343   1.751343   0.000000
     6  H    2.171629   1.084590   3.073302   2.525467   2.525467
     7  H    2.171629   1.084590   2.525467   2.525467   3.073302
     8  H    2.171629   1.084590   2.525467   3.073302   2.525467
                    6          7          8
     6  H    0.000000
     7  H    1.751343   0.000000
     8  H    1.751343   1.751343   0.000000
 Stoichiometry    C2H6
 Framework group  D3D[C3(C.C),3SGD(H2)]
 Deg. of freedom     3
 Full point group                 D3D     NOp  12
 Largest Abelian subgroup         C2H     NOp   4
 Largest concise Abelian subgroup C2H     NOp   4
                         Standard orientation:                         
 ---------------------------------------------------------------------
 Center     Atomic      Atomic             Coordinates (Angstroms)
 Number     Number       Type             X           Y           Z
 ---------------------------------------------------------------------
      1          6           0        0.000000    0.000000    0.764760
      2          6           0        0.000000    0.000000   -0.764760
      3          1           0        0.000000    1.011138    1.157107
      4          1           0       -0.875671   -0.505569    1.157107
      5          1           0        0.875671   -0.505569    1.157107
      6          1           0        0.000000   -1.011138   -1.157107
      7          1           0       -0.875671    0.505569   -1.157107
      8          1           0        0.875671    0.505569   -1.157107
 ---------------------------------------------------------------------
 Rotational constants (GHZ):          81.7447464          20.0356249          20.0356249
 Standard basis: 6-31G (6D, 7F)
 There are    11 symmetry adapted cartesian basis functions of AG  symmetry.
 There are     4 symmetry adapted cartesian basis functions of BG  symmetry.
 There are     4 symmetry adapted cartesian basis functions of AU  symmetry.
 There are    11 symmetry adapted cartesian basis functions of BU  symmetry.
 There are    11 symmetry adapted basis functions of AG  symmetry.
 There are     4 symmetry adapted basis functions of BG  symmetry.
 There are     4 symmetry adapted basis functions of AU  symmetry.
 There are    11 symmetry adapted basis functions of BU  symmetry.
    30 basis functions,    68 primitive gaussians,    30 cartesian basis functions
     9 alpha electrons        9 beta electrons
       nuclear repulsion energy        42.3788209823 Hartrees.
 NAtoms=    8 NActive=    8 NUniq=    2 SFac= 4.00D+00 NAtFMM=   60 NAOKFM=F Big=F
 Integral buffers will be    131072 words long.
 Raffenetti 1 integral format.
 Two-electron integral symmetry is turned on.
 One-electron integrals computed using PRISM.
 NBasis=    30 RedAO= T EigKep=  9.94D-03  NBF=    11     4     4    11
 NBsUse=    30 1.00D-06 EigRej= -1.00D+00 NBFU=    11     4     4    11
 Initial guess from the checkpoint file:  "D:\APPs\lihaibei\molecules-use\CH3CH3-D3d.chk"
 B after Tr=     0.000000    0.000000    0.000000
         Rot=    1.000000    0.000000    0.000000    0.000000 Ang=   0.00 deg.
 Initial guess orbital symmetries:
       Occupied  (A1G) (A2U) (A1G) (A2U) (EU) (EU) (A1G) (EG) (EG)
       Virtual   (A1G) (A2U) (EU) (EU) (EG) (EG) (A2U) (A1G) (EU)
                 (EU) (EG) (EG) (A2U) (EU) (EU) (A1G) (EG) (EG)
                 (A2U) (A1G) (A2U)
 Keep R1 ints in memory in symmetry-blocked form, NReq=927648.
 Requested convergence on RMS density matrix=1.00D-08 within 128 cycles.
 Requested convergence on MAX density matrix=1.00D-06.
 Requested convergence on             energy=1.00D-06.
 No special actions if energy rises.
 SCF Done:  E(RHF) =  -79.1975722342     A.U. after    6 cycles
            NFock=  6  Conv=0.74D-08     -V/T= 1.9982
 Calling FoFJK, ICntrl=      2127 FMM=F ISym2X=1 I1Cent= 0 IOpClX= 0 NMat=1 NMatS=1 NMatT=0.
 ***** Axes restored to original set *****
 -------------------------------------------------------------------
 Center     Atomic                   Forces (Hartrees/Bohr)
 Number     Number              X              Y              Z
 -------------------------------------------------------------------
      1        6           0.000000000    0.000000000   -0.000344345
      2        6           0.000000000    0.000000000    0.000344345
      3        1           0.000000000   -0.000085058    0.000056405
      4        1          -0.000073662    0.000042529    0.000056405
      5        1           0.000073662    0.000042529    0.000056405
      6        1           0.000000000    0.000085058   -0.000056405
      7        1          -0.000073662   -0.000042529   -0.000056405
      8        1           0.000073662   -0.000042529   -0.000056405
 -------------------------------------------------------------------
 Cartesian Forces:  Max     0.000344345 RMS     0.000111737

 GradGradGradGradGradGradGradGradGradGradGradGradGradGradGradGradGradGrad
 Berny optimization.
 Using GEDIIS/GDIIS optimizer.
 FormGI is forming the generalized inverse of G from B-inverse, IUseBI=4.
 Internal  Forces:  Max     0.000175129 RMS     0.000058539
 Search for a local minimum.
 Step number   4 out of a maximum of   38
 All quantities printed in internal units (Hartrees-Bohrs-Radians)
 Mixed Optimization -- En-DIIS/RFO-DIIS
 Swapping is turned off.
 Update second derivatives using D2CorX and points    1    2    3    4
 DE= -4.39D-06 DEPred=-4.26D-06 R= 1.03D+00
 TightC=F SS=  1.41D+00  RLast= 5.31D-03 DXNew= 8.4853D-01 1.5920D-02
 Trust test= 1.03D+00 RLast= 5.31D-03 DXMaxT set to 5.05D-01
 ITU=  1  1  1  0
     Eigenvalues ---    0.00763   0.05752   0.05752   0.05752   0.05752
     Eigenvalues ---    0.13861   0.16000   0.16000   0.16000   0.16000
     Eigenvalues ---    0.16000   0.31859   0.31859   0.31859   0.31859
     Eigenvalues ---    0.31859   0.34993   0.37944
 En-DIIS/RFO-DIIS/Sim-DIIS IScMMF=       -3 using points:     4    3
 RFO step:  Lambda=-3.68206506D-07.
 DidBck=F Rises=F RFO-DIIS coefs:    1.10324   -0.10324
 Iteration  1 RMS(Cart)=  0.00013923 RMS(Int)=  0.00000004
 Iteration  2 RMS(Cart)=  0.00000003 RMS(Int)=  0.00000003
 ClnCor:  largest displacement from symmetrization is 2.42D-09 for atom     6.
 Variable       Old X    -DE/DX   Delta X   Delta X   Delta X     New X
                                 (Linear)    (Quad)   (Total)
    R1        2.89037   0.00018   0.00044   0.00030   0.00074   2.89111
    R2        2.04958  -0.00010   0.00011  -0.00040  -0.00029   2.04929
    R3        2.04958  -0.00010   0.00011  -0.00040  -0.00029   2.04929
    R4        2.04958  -0.00010   0.00011  -0.00040  -0.00029   2.04929
    R5        2.04958  -0.00010   0.00011  -0.00040  -0.00029   2.04929
    R6        2.04958  -0.00010   0.00011  -0.00040  -0.00029   2.04929
    R7        2.04958  -0.00010   0.00011  -0.00040  -0.00029   2.04929
    A1        1.94094  -0.00002  -0.00005  -0.00018  -0.00024   1.94070
    A2        1.94094  -0.00002  -0.00005  -0.00018  -0.00024   1.94070
    A3        1.94094  -0.00002  -0.00005  -0.00018  -0.00024   1.94070
    A4        1.87938   0.00002   0.00006   0.00019   0.00025   1.87963
    A5        1.87938   0.00002   0.00006   0.00019   0.00025   1.87963
    A6        1.87938   0.00002   0.00006   0.00019   0.00025   1.87963
    A7        1.94094  -0.00002  -0.00005  -0.00018  -0.00024   1.94070
    A8        1.94094  -0.00002  -0.00005  -0.00018  -0.00024   1.94070
    A9        1.94094  -0.00002  -0.00005  -0.00018  -0.00024   1.94070
   A10        1.87938   0.00002   0.00006   0.00019   0.00025   1.87963
   A11        1.87938   0.00002   0.00006   0.00019   0.00025   1.87963
   A12        1.87938   0.00002   0.00006   0.00019   0.00025   1.87963
    D1        3.14159   0.00000   0.00000   0.00000   0.00000   3.14159
    D2       -1.04720   0.00000   0.00000   0.00000   0.00000  -1.04720
    D3        1.04720   0.00000   0.00000   0.00000   0.00000   1.04720
    D4       -1.04720   0.00000   0.00000   0.00000   0.00000  -1.04720
    D5        1.04720   0.00000   0.00000   0.00000   0.00000   1.04720
    D6        3.14159   0.00000   0.00000   0.00000   0.00000   3.14159
    D7        1.04720   0.00000   0.00000   0.00000   0.00000   1.04720
    D8        3.14159   0.00000   0.00000   0.00000   0.00000   3.14159
    D9       -1.04720   0.00000   0.00000   0.00000   0.00000  -1.04720
         Item               Value     Threshold  Converged?
 Maximum Force            0.000175     0.000450     YES
 RMS     Force            0.000059     0.000300     YES
 Maximum Displacement     0.000371     0.001800     YES
 RMS     Displacement     0.000139     0.001200     YES
 Predicted change in Energy=-1.841036D-07
 Optimization completed.
    -- Stationary point found.
                           ----------------------------
                           !   Optimized Parameters   !
                           ! (Angstroms and Degrees)  !
 --------------------------                            --------------------------
 ! Name  Definition              Value          Derivative Info.                !
 --------------------------------------------------------------------------------
 ! R1    R(1,2)                  1.5295         -DE/DX =    0.0002              !
 ! R2    R(1,3)                  1.0846         -DE/DX =   -0.0001              !
 ! R3    R(1,4)                  1.0846         -DE/DX =   -0.0001              !
 ! R4    R(1,5)                  1.0846         -DE/DX =   -0.0001              !
 ! R5    R(2,6)                  1.0846         -DE/DX =   -0.0001              !
 ! R6    R(2,7)                  1.0846         -DE/DX =   -0.0001              !
 ! R7    R(2,8)                  1.0846         -DE/DX =   -0.0001              !
 ! A1    A(2,1,3)              111.2075         -DE/DX =    0.0                 !
 ! A2    A(2,1,4)              111.2075         -DE/DX =    0.0                 !
 ! A3    A(2,1,5)              111.2075         -DE/DX =    0.0                 !
 ! A4    A(3,1,4)              107.6805         -DE/DX =    0.0                 !
 ! A5    A(3,1,5)              107.6805         -DE/DX =    0.0                 !
 ! A6    A(4,1,5)              107.6805         -DE/DX =    0.0                 !
 ! A7    A(1,2,6)              111.2075         -DE/DX =    0.0                 !
 ! A8    A(1,2,7)              111.2075         -DE/DX =    0.0                 !
 ! A9    A(1,2,8)              111.2075         -DE/DX =    0.0                 !
 ! A10   A(6,2,7)              107.6805         -DE/DX =    0.0                 !
 ! A11   A(6,2,8)              107.6805         -DE/DX =    0.0                 !
 ! A12   A(7,2,8)              107.6805         -DE/DX =    0.0                 !
 ! D1    D(3,1,2,6)            180.0            -DE/DX =    0.0                 !
 ! D2    D(3,1,2,7)            -60.0            -DE/DX =    0.0                 !
 ! D3    D(3,1,2,8)             60.0            -DE/DX =    0.0                 !
 ! D4    D(4,1,2,6)            -60.0            -DE/DX =    0.0                 !
 ! D5    D(4,1,2,7)             60.0            -DE/DX =    0.0                 !
 ! D6    D(4,1,2,8)            180.0            -DE/DX =    0.0                 !
 ! D7    D(5,1,2,6)             60.0            -DE/DX =    0.0                 !
 ! D8    D(5,1,2,7)            180.0            -DE/DX =    0.0                 !
 ! D9    D(5,1,2,8)            -60.0            -DE/DX =    0.0                 !
 --------------------------------------------------------------------------------
 GradGradGradGradGradGradGradGradGradGradGradGradGradGradGradGradGradGrad

                          Input orientation:                          
 ---------------------------------------------------------------------
 Center     Atomic      Atomic             Coordinates (Angstroms)
 Number     Number       Type             X           Y           Z
 ---------------------------------------------------------------------
      1          6           0        0.000000    0.000000   -0.764760
      2          6           0        0.000000    0.000000    0.764760
      3          1           0        0.000000    1.011138   -1.157107
      4          1           0        0.875671   -0.505569   -1.157107
      5          1           0       -0.875671   -0.505569   -1.157107
      6          1           0        0.000000   -1.011138    1.157107
      7          1           0        0.875671    0.505569    1.157107
      8          1           0       -0.875671    0.505569    1.157107
 ---------------------------------------------------------------------
                    Distance matrix (angstroms):
                    1          2          3          4          5
     1  C    0.000000
     2  C    1.529520   0.000000
     3  H    1.084590   2.171629   0.000000
     4  H    1.084590   2.171629   1.751343   0.000000
     5  H    1.084590   2.171629   1.751343   1.751343   0.000000
     6  H    2.171629   1.084590   3.073302   2.525467   2.525467
     7  H    2.171629   1.084590   2.525467   2.525467   3.073302
     8  H    2.171629   1.084590   2.525467   3.073302   2.525467
                    6          7          8
     6  H    0.000000
     7  H    1.751343   0.000000
     8  H    1.751343   1.751343   0.000000
 Stoichiometry    C2H6
 Framework group  D3D[C3(C.C),3SGD(H2)]
 Deg. of freedom     3
 Full point group                 D3D     NOp  12
 Largest Abelian subgroup         C2H     NOp   4
 Largest concise Abelian subgroup C2H     NOp   4
                         Standard orientation:                         
 ---------------------------------------------------------------------
 Center     Atomic      Atomic             Coordinates (Angstroms)
 Number     Number       Type             X           Y           Z
 ---------------------------------------------------------------------
      1          6           0        0.000000    0.000000    0.764760
      2          6           0        0.000000    0.000000   -0.764760
      3          1           0        0.000000    1.011138    1.157107
      4          1           0       -0.875671   -0.505569    1.157107
      5          1           0        0.875671   -0.505569    1.157107
      6          1           0        0.000000   -1.011138   -1.157107
      7          1           0       -0.875671    0.505569   -1.157107
      8          1           0        0.875671    0.505569   -1.157107
 ---------------------------------------------------------------------
 Rotational constants (GHZ):          81.7447464          20.0356249          20.0356249

 **********************************************************************

            Population analysis using the SCF Density.

 **********************************************************************

 Orbital symmetries:
       Occupied  (A1G) (A2U) (A1G) (A2U) (EU) (EU) (A1G) (EG) (EG)
       Virtual   (A1G) (A2U) (EU) (EU) (EG) (EG) (A2U) (A1G) (EU)
                 (EU) (EG) (EG) (A2U) (EU) (EU) (A1G) (EG) (EG)
                 (A2U) (A1G) (A2U)
 The electronic state is 1-A1G.
 Alpha  occ. eigenvalues --  -11.21080 -11.21024  -1.02268  -0.84792  -0.59835
 Alpha  occ. eigenvalues --   -0.59835  -0.50743  -0.48516  -0.48516
 Alpha virt. eigenvalues --    0.24158   0.30100   0.31588   0.31588   0.33720
 Alpha virt. eigenvalues --    0.33720   0.40657   0.73836   0.75722   0.75722
 Alpha virt. eigenvalues --    0.86169   0.86169   0.95487   1.21658   1.21658
 Alpha virt. eigenvalues --    1.22486   1.26526   1.26526   1.26710   1.30990
 Alpha virt. eigenvalues --    1.69932
          Condensed to atoms (all electrons):
               1          2          3          4          5          6
     1  C    5.129226   0.277101   0.390406   0.390406   0.390406  -0.041672
     2  C    0.277101   5.129226  -0.041672  -0.041672  -0.041672   0.390406
     3  H    0.390406  -0.041672   0.565675  -0.031742  -0.031742   0.004088
     4  H    0.390406  -0.041672  -0.031742   0.565675  -0.031742  -0.002928
     5  H    0.390406  -0.041672  -0.031742  -0.031742   0.565675  -0.002928
     6  H   -0.041672   0.390406   0.004088  -0.002928  -0.002928   0.565675
     7  H   -0.041672   0.390406  -0.002928  -0.002928   0.004088  -0.031742
     8  H   -0.041672   0.390406  -0.002928   0.004088  -0.002928  -0.031742
               7          8
     1  C   -0.041672  -0.041672
     2  C    0.390406   0.390406
     3  H   -0.002928  -0.002928
     4  H   -0.002928   0.004088
     5  H    0.004088  -0.002928
     6  H   -0.031742  -0.031742
     7  H    0.565675  -0.031742
     8  H   -0.031742   0.565675
 Mulliken charges:
               1
     1  C   -0.452529
     2  C   -0.452529
     3  H    0.150843
     4  H    0.150843
     5  H    0.150843
     6  H    0.150843
     7  H    0.150843
     8  H    0.150843
 Sum of Mulliken charges =   0.00000
 Mulliken charges with hydrogens summed into heavy atoms:
               1
     1  C    0.000000
     2  C    0.000000
 Electronic spatial extent (au):  <R**2>=            109.5667
 Charge=              0.0000 electrons
 Dipole moment (field-independent basis, Debye):
    X=              0.0000    Y=              0.0000    Z=              0.0000  Tot=              0.0000
 Quadrupole moment (field-independent basis, Debye-Ang):
   XX=            -15.0416   YY=            -15.0416   ZZ=            -15.5266
   XY=              0.0000   XZ=              0.0000   YZ=              0.0000
 Traceless Quadrupole moment (field-independent basis, Debye-Ang):
   XX=              0.1617   YY=              0.1617   ZZ=             -0.3233
   XY=              0.0000   XZ=              0.0000   YZ=              0.0000
 Octapole moment (field-independent basis, Debye-Ang**2):
  XXX=              0.0000  YYY=              0.0000  ZZZ=              0.0000  XYY=              0.0000
  XXY=              0.0000  XXZ=              0.0000  XZZ=              0.0000  YZZ=              0.0000
  YYZ=              0.0000  XYZ=              0.0000
 Hexadecapole moment (field-independent basis, Debye-Ang**3):
 XXXX=            -28.8156 YYYY=            -28.8156 ZZZZ=            -93.2266 XXXY=              0.0000
 XXXZ=              0.0000 YYYX=              0.0000 YYYZ=              1.1322 ZZZX=              0.0000
 ZZZY=              0.0000 XXYY=             -9.6052 XXZZ=            -19.4542 YYZZ=            -19.4542
 XXYZ=             -1.1322 YYXZ=              0.0000 ZZXY=              0.0000
 N-N= 4.237882098233D+01 E-N=-2.685609641269D+02  KE= 7.934034694093D+01
 Symmetry AG   KE= 3.910744269434D+01
 Symmetry BG   KE= 2.067522025892D+00
 Symmetry AU   KE= 1.794149517695D+00
 Symmetry BU   KE= 3.637123270301D+01
 1|1|UNPC-WIN10-2T0259|FOpt|RHF|6-31G|C2H6|SDDX|16-Apr-2026|0||# opt hf
 /6-31g geom=connectivity||Title Card Required||0,1|C,0.,0.,-0.76475981
 17|C,0.,0.,0.7647598117|H,-0.0000000035,1.011138106,-1.1571066968|H,0.
 8756712883,-0.5055690499,-1.1571066968|H,-0.8756712848,-0.5055690561,-
 1.1571066968|H,0.0000000035,-1.011138106,1.1571066968|H,0.8756712848,0
 .5055690561,1.1571066968|H,-0.8756712883,0.5055690499,1.1571066968||Ve
 rsion=EM64W-G16RevB.01|State=1-A1G|HF=-79.1975722|RMSD=7.450e-009|RMSF
 =1.117e-004|Dipole=0.,0.,0.|Quadrupole=0.1201954,0.1201954,-0.2403907,
 0.,0.,0.|PG=D03D [C3(C1.C1),3SGD(H2)]||@


 A SCIENTIST IS SOMEONE WHOSE CURIOSITY SURVIVES
 EDUCATION'S ASSAULTS ON IT.
                          - SIR HERMANN BONDI
 Job cpu time:       0 days  0 hours  0 minutes  5.0 seconds.
 Elapsed time:       0 days  0 hours  0 minutes  2.8 seconds.
 File lengths (MBytes):  RWF=      6 Int=      0 D2E=      0 Chk=      1 Scr=      1
 Normal termination of Gaussian 16 at Thu Apr 16 12:45:57 2026.
