 Entering Link 1 = C:\G16W\l1.exe PID=      9324.
  
 Copyright (c) 1988-2017, Gaussian, Inc.  All Rights Reserved.
  
 This is part of the Gaussian(R) 16 program.  It is based on
 the Gaussian(R) 09 system (copyright 2009, Gaussian, Inc.),
 the Gaussian(R) 03 system (copyright 2003, Gaussian, Inc.),
 the Gaussian(R) 98 system (copyright 1998, Gaussian, Inc.),
 the Gaussian(R) 94 system (copyright 1995, Gaussian, Inc.),
 the Gaussian 92(TM) system (copyright 1992, Gaussian, Inc.),
 the Gaussian 90(TM) system (copyright 1990, Gaussian, Inc.),
 the Gaussian 88(TM) system (copyright 1988, Gaussian, Inc.),
 the Gaussian 86(TM) system (copyright 1986, Carnegie Mellon
 University), and the Gaussian 82(TM) system (copyright 1983,
 Carnegie Mellon University). Gaussian is a federally registered
 trademark of Gaussian, Inc.
  
 This software contains proprietary and confidential information,
 including trade secrets, belonging to Gaussian, Inc.
  
 This software is provided under written license and may be
 used, copied, transmitted, or stored only in accord with that
 written license.
  
 The following legend is applicable only to US Government
 contracts under FAR:
  
                    RESTRICTED RIGHTS LEGEND
  
 Use, reproduction and disclosure by the US Government is
 subject to restrictions as set forth in subparagraphs (a)
 and (c) of the Commercial Computer Software - Restricted
 Rights clause in FAR 52.227-19.
  
 Gaussian, Inc.
 340 Quinnipiac St., Bldg. 40, Wallingford CT 06492
  
  
 ---------------------------------------------------------------
 Warning -- This program may not be used in any manner that
 competes with the business of Gaussian, Inc. or will provide
 assistance to any competitor of Gaussian, Inc.  The licensee
 of this program is prohibited from giving any competitor of
 Gaussian, Inc. access to this program.  By using this program,
 the user acknowledges that Gaussian, Inc. is engaged in the
 business of creating and licensing software in the field of
 computational chemistry and represents and warrants to the
 licensee that it is not a competitor of Gaussian, Inc. and that
 it will not use this program in any manner prohibited above.
 ---------------------------------------------------------------
  

 Cite this work as:
 Gaussian 16, Revision B.01,
 M. J. Frisch, G. W. Trucks, H. B. Schlegel, G. E. Scuseria, 
 M. A. Robb, J. R. Cheeseman, G. Scalmani, V. Barone, 
 G. A. Petersson, H. Nakatsuji, X. Li, M. Caricato, A. V. Marenich, 
 J. Bloino, B. G. Janesko, R. Gomperts, B. Mennucci, H. P. Hratchian, 
 J. V. Ortiz, A. F. Izmaylov, J. L. Sonnenberg, D. Williams-Young, 
 F. Ding, F. Lipparini, F. Egidi, J. Goings, B. Peng, A. Petrone, 
 T. Henderson, D. Ranasinghe, V. G. Zakrzewski, J. Gao, N. Rega, 
 G. Zheng, W. Liang, M. Hada, M. Ehara, K. Toyota, R. Fukuda, 
 J. Hasegawa, M. Ishida, T. Nakajima, Y. Honda, O. Kitao, H. Nakai, 
 T. Vreven, K. Throssell, J. A. Montgomery, Jr., J. E. Peralta, 
 F. Ogliaro, M. J. Bearpark, J. J. Heyd, E. N. Brothers, K. N. Kudin, 
 V. N. Staroverov, T. A. Keith, R. Kobayashi, J. Normand, 
 K. Raghavachari, A. P. Rendell, J. C. Burant, S. S. Iyengar, 
 J. Tomasi, M. Cossi, J. M. Millam, M. Klene, C. Adamo, R. Cammi, 
 J. W. Ochterski, R. L. Martin, K. Morokuma, O. Farkas, 
 J. B. Foresman, and D. J. Fox, Gaussian, Inc., Wallingford CT, 2016.
 
 ******************************************
 Gaussian 16:  EM64W-G16RevB.01 16-Dec-2017
                16-Apr-2026 
 ******************************************
 %chk=D:\APPs\lihaibei\molecules-use\ChFClCHFCl.chk
 --------------------------------
 # opt hf/6-31g geom=connectivity
 --------------------------------
 1/18=20,19=15,38=1,57=2/1,3;
 2/9=110,12=2,17=6,18=5,40=1/2;
 3/5=1,6=6,11=9,25=1,30=1,71=1/1,2,3;
 4//1;
 5/5=2,38=5/2;
 6/7=2,8=2,9=2,10=2,28=1/1;
 7//1,2,3,16;
 1/18=20,19=15/3(2);
 2/9=110/2;
 99//99;
 2/9=110/2;
 3/5=1,6=6,11=9,25=1,30=1,71=1/1,2,3;
 4/5=5,16=3,69=1/1;
 5/5=2,38=5/2;
 7//1,2,3,16;
 1/18=20,19=15/3(-5);
 2/9=110/2;
 6/7=2,8=2,9=2,10=2,19=2,28=1/1;
 99/9=1/99;
 -------------------
 Title Card Required
 -------------------
 Symbolic Z-matrix:
 Charge =  0 Multiplicity = 1
 C                    -0.53678   0.40674   0.3302 
 C                     0.53678  -0.40674  -0.3302 
 H                    -0.40515   0.40916   1.43956 
 H                     0.40515  -0.40916  -1.43956 
 F                     0.50073  -1.68577   0.10118 
 F                    -0.50073   1.68577  -0.10118 
 Cl                    2.12837   0.25075   0.03291 
 Cl                   -2.12837  -0.25075  -0.03291 
 

 GradGradGradGradGradGradGradGradGradGradGradGradGradGradGradGradGradGrad
 Berny optimization.
 Initialization pass.
                           ----------------------------
                           !    Initial Parameters    !
                           ! (Angstroms and Degrees)  !
 --------------------------                            --------------------------
 ! Name  Definition              Value          Derivative Info.                !
 --------------------------------------------------------------------------------
 ! R1    R(1,2)                  1.5001         estimate D2E/DX2                !
 ! R2    R(1,3)                  1.1171         estimate D2E/DX2                !
 ! R3    R(1,6)                  1.3503         estimate D2E/DX2                !
 ! R4    R(1,8)                  1.7599         estimate D2E/DX2                !
 ! R5    R(2,4)                  1.1171         estimate D2E/DX2                !
 ! R6    R(2,5)                  1.3503         estimate D2E/DX2                !
 ! R7    R(2,7)                  1.7599         estimate D2E/DX2                !
 ! A1    A(2,1,3)              110.7335         estimate D2E/DX2                !
 ! A2    A(2,1,6)              110.726          estimate D2E/DX2                !
 ! A3    A(2,1,8)              110.7185         estimate D2E/DX2                !
 ! A4    A(3,1,6)              108.1825         estimate D2E/DX2                !
 ! A5    A(3,1,8)              108.195          estimate D2E/DX2                !
 ! A6    A(6,1,8)              108.1859         estimate D2E/DX2                !
 ! A7    A(1,2,4)              110.7335         estimate D2E/DX2                !
 ! A8    A(1,2,5)              110.726          estimate D2E/DX2                !
 ! A9    A(1,2,7)              110.7185         estimate D2E/DX2                !
 ! A10   A(4,2,5)              108.1825         estimate D2E/DX2                !
 ! A11   A(4,2,7)              108.195          estimate D2E/DX2                !
 ! A12   A(5,2,7)              108.1859         estimate D2E/DX2                !
 ! D1    D(3,1,2,4)            180.0            estimate D2E/DX2                !
 ! D2    D(3,1,2,5)             60.0017         estimate D2E/DX2                !
 ! D3    D(3,1,2,7)            -59.991          estimate D2E/DX2                !
 ! D4    D(6,1,2,4)            -60.0017         estimate D2E/DX2                !
 ! D5    D(6,1,2,5)            180.0            estimate D2E/DX2                !
 ! D6    D(6,1,2,7)             60.0073         estimate D2E/DX2                !
 ! D7    D(8,1,2,4)             59.991          estimate D2E/DX2                !
 ! D8    D(8,1,2,5)            -60.0073         estimate D2E/DX2                !
 ! D9    D(8,1,2,7)            180.0            estimate D2E/DX2                !
 --------------------------------------------------------------------------------
 Trust Radius=3.00D-01 FncErr=1.00D-07 GrdErr=1.00D-07 EigMax=2.50D+02 EigMin=1.00D-04
 Number of steps in this run=     38 maximum allowed number of steps=    100.
 GradGradGradGradGradGradGradGradGradGradGradGradGradGradGradGradGradGrad

                          Input orientation:                          
 ---------------------------------------------------------------------
 Center     Atomic      Atomic             Coordinates (Angstroms)
 Number     Number       Type             X           Y           Z
 ---------------------------------------------------------------------
      1          6           0       -0.536776    0.406737    0.330202
      2          6           0        0.536776   -0.406737   -0.330202
      3          1           0       -0.405151    0.409162    1.439558
      4          1           0        0.405151   -0.409162   -1.439558
      5          9           0        0.500726   -1.685768    0.101182
      6          9           0       -0.500726    1.685768   -0.101182
      7         17           0        2.128367    0.250750    0.032909
      8         17           0       -2.128367   -0.250750   -0.032909
 ---------------------------------------------------------------------
                    Distance matrix (angstroms):
                    1          2          3          4          5
     1  C    0.000000
     2  C    1.500130   0.000000
     3  H    1.117140   2.164479   0.000000
     4  H    2.164479   1.117140   3.100896   0.000000
     5  F    2.346793   1.350301   2.645864   2.003182   0.000000
     6  F    1.350301   2.346793   2.003182   2.645864   3.522941
     7  Cl   2.686207   1.759915   2.902149   2.360746   2.530608
     8  Cl   1.759915   2.686207   2.360746   2.902149   2.998231
                    6          7          8
     6  F    0.000000
     7  Cl   2.998231   0.000000
     8  Cl   2.530608   4.286680   0.000000
 Stoichiometry    C2H2Cl2F2
 Framework group  CI[X(C2H2Cl2F2)]
 Deg. of freedom     9
 Full point group                 CI      NOp   2
 Largest Abelian subgroup         CI      NOp   2
 Largest concise Abelian subgroup CI      NOp   2
                         Standard orientation:                         
 ---------------------------------------------------------------------
 Center     Atomic      Atomic             Coordinates (Angstroms)
 Number     Number       Type             X           Y           Z
 ---------------------------------------------------------------------
      1          6           0       -0.536776    0.406737    0.330202
      2          6           0        0.536776   -0.406737   -0.330202
      3          1           0       -0.405151    0.409162    1.439558
      4          1           0        0.405151   -0.409162   -1.439558
      5          9           0        0.500726   -1.685768    0.101182
      6          9           0       -0.500726    1.685768   -0.101182
      7         17           0        2.128367    0.250750    0.032909
      8         17           0       -2.128367   -0.250750   -0.032909
 ---------------------------------------------------------------------
 Rotational constants (GHZ):           4.0777004           1.4828078           1.1223206
 Standard basis: 6-31G (6D, 7F)
 There are    33 symmetry adapted cartesian basis functions of AG  symmetry.
 There are    33 symmetry adapted cartesian basis functions of AU  symmetry.
 There are    33 symmetry adapted basis functions of AG  symmetry.
 There are    33 symmetry adapted basis functions of AU  symmetry.
    66 basis functions,   188 primitive gaussians,    66 cartesian basis functions
    33 alpha electrons       33 beta electrons
       nuclear repulsion energy       377.7072834012 Hartrees.
 NAtoms=    8 NActive=    8 NUniq=    4 SFac= 4.00D+00 NAtFMM=   60 NAOKFM=F Big=F
 Integral buffers will be    131072 words long.
 Raffenetti 1 integral format.
 Two-electron integral symmetry is turned on.
 One-electron integrals computed using PRISM.
 NBasis=    66 RedAO= T EigKep=  7.31D-03  NBF=    33    33
 NBsUse=    66 1.00D-06 EigRej= -1.00D+00 NBFU=    33    33
 ExpMin= 1.43D-01 ExpMax= 2.52D+04 ExpMxC= 3.78D+03 IAcc=3 IRadAn=         5 AccDes= 0.00D+00
 Harris functional with IExCor=  205 and IRadAn=       5 diagonalized for initial guess.
 HarFok:  IExCor=  205 AccDes= 0.00D+00 IRadAn=         5 IDoV= 1 UseB2=F ITyADJ=14
 ICtDFT=  3500011 ScaDFX=  1.000000  1.000000  1.000000  1.000000
 FoFCou: FMM=F IPFlag=           0 FMFlag=      100000 FMFlg1=           0
         NFxFlg=           0 DoJE=T BraDBF=F KetDBF=T FulRan=T
         wScrn=  0.000000 ICntrl=       500 IOpCl=  0 I1Cent=   200000004 NGrid=           0
         NMat0=    1 NMatS0=      1 NMatT0=    0 NMatD0=    1 NMtDS0=    0 NMtDT0=    0
 Petite list used in FoFCou.
 Initial guess orbital symmetries:
       Occupied  (AU) (AG) (AU) (AG) (AU) (AG) (AU) (AG) (AG) (AU)
                 (AU) (AG) (AG) (AU) (AG) (AU) (AG) (AU) (AG) (AU)
                 (AU) (AG) (AG) (AU) (AG) (AU) (AU) (AG) (AG) (AU)
                 (AG) (AU) (AG)
       Virtual   (AU) (AU) (AG) (AU) (AG) (AG) (AU) (AG) (AU) (AG)
                 (AU) (AU) (AG) (AG) (AU) (AG) (AU) (AU) (AG) (AG)
                 (AU) (AU) (AG) (AG) (AU) (AG) (AU) (AU) (AG) (AU)
                 (AG) (AG) (AU)
 The electronic state of the initial guess is 1-AG.
 Keep R1 ints in memory in symmetry-blocked form, NReq=3674533.
 Requested convergence on RMS density matrix=1.00D-08 within 128 cycles.
 Requested convergence on MAX density matrix=1.00D-06.
 Requested convergence on             energy=1.00D-06.
 No special actions if energy rises.
 SCF Done:  E(RHF) =  -1194.57157865     A.U. after   11 cycles
            NFock= 11  Conv=0.94D-08     -V/T= 1.9993

 **********************************************************************

            Population analysis using the SCF Density.

 **********************************************************************

 Orbital symmetries:
       Occupied  (AU) (AG) (AU) (AG) (AG) (AU) (AG) (AU) (AG) (AU)
                 (AU) (AG) (AU) (AG) (AG) (AU) (AG) (AU) (AG) (AU)
                 (AU) (AG) (AG) (AU) (AG) (AU) (AU) (AG) (AG) (AU)
                 (AG) (AU) (AG)
       Virtual   (AU) (AG) (AU) (AU) (AG) (AU) (AG) (AG) (AU) (AG)
                 (AU) (AG) (AU) (AU) (AG) (AG) (AU) (AG) (AU) (AU)
                 (AG) (AU) (AG) (AG) (AU) (AU) (AG) (AU) (AU) (AG)
                 (AG) (AG) (AU)
 The electronic state is 1-AG.
 Alpha  occ. eigenvalues -- -104.85103-104.85103 -26.34520 -26.34519 -11.43697
 Alpha  occ. eigenvalues --  -11.43629 -10.59415 -10.59415  -8.06263  -8.06263
 Alpha  occ. eigenvalues --   -8.05808  -8.05808  -8.05800  -8.05800  -1.67997
 Alpha  occ. eigenvalues --   -1.67237  -1.21804  -1.17759  -1.02087  -0.90312
 Alpha  occ. eigenvalues --   -0.80018  -0.78853  -0.74668  -0.74500  -0.70075
 Alpha  occ. eigenvalues --   -0.67173  -0.60097  -0.59414  -0.53909  -0.50300
 Alpha  occ. eigenvalues --   -0.49024  -0.48539  -0.47458
 Alpha virt. eigenvalues --    0.14266   0.18348   0.20278   0.25273   0.27101
 Alpha virt. eigenvalues --    0.36432   0.36919   0.55509   0.57333   0.60832
 Alpha virt. eigenvalues --    0.61547   0.62813   0.62949   0.64481   0.65938
 Alpha virt. eigenvalues --    0.76916   0.78255   0.84361   0.84962   0.95552
 Alpha virt. eigenvalues --    0.96409   1.08250   1.14860   1.21502   1.43094
 Alpha virt. eigenvalues --    1.57952   1.58113   1.60338   1.66444   1.68235
 Alpha virt. eigenvalues --    1.77960   2.39181   2.48814
          Condensed to atoms (all electrons):
               1          2          3          4          5          6
     1  C    5.491505   0.023769   0.367291  -0.051973  -0.029376   0.072031
     2  C    0.023769   5.491505  -0.051973   0.367291   0.072031  -0.029376
     3  H    0.367291  -0.051973   0.499362   0.004229   0.002122  -0.032742
     4  H   -0.051973   0.367291   0.004229   0.499362  -0.032742   0.002122
     5  F   -0.029376   0.072031   0.002122  -0.032742   9.413017   0.000369
     6  F    0.072031  -0.029376  -0.032742   0.002122   0.000369   9.413017
     7  Cl  -0.071239   0.177140  -0.001510  -0.051688  -0.041742   0.003797
     8  Cl   0.177140  -0.071239  -0.051688  -0.001510   0.003797  -0.041742
               7          8
     1  C   -0.071239   0.177140
     2  C    0.177140  -0.071239
     3  H   -0.001510  -0.051688
     4  H   -0.051688  -0.001510
     5  F   -0.041742   0.003797
     6  F    0.003797  -0.041742
     7  Cl  16.878221   0.005306
     8  Cl   0.005306  16.878221
 Mulliken charges:
               1
     1  C    0.020851
     2  C    0.020851
     3  H    0.264909
     4  H    0.264909
     5  F   -0.387475
     6  F   -0.387475
     7  Cl   0.101715
     8  Cl   0.101715
 Sum of Mulliken charges =   0.00000
 Mulliken charges with hydrogens summed into heavy atoms:
               1
     1  C    0.285761
     2  C    0.285761
     5  F   -0.387475
     6  F   -0.387475
     7  Cl   0.101715
     8  Cl   0.101715
 Electronic spatial extent (au):  <R**2>=            910.4268
 Charge=              0.0000 electrons
 Dipole moment (field-independent basis, Debye):
    X=              0.0000    Y=              0.0000    Z=              0.0000  Tot=              0.0000
 Quadrupole moment (field-independent basis, Debye-Ang):
   XX=            -52.3741   YY=            -54.2350   ZZ=            -43.9413
   XY=              0.9386   XZ=             -1.1890   YZ=              1.7839
 Traceless Quadrupole moment (field-independent basis, Debye-Ang):
   XX=             -2.1906   YY=             -4.0515   ZZ=              6.2422
   XY=              0.9386   XZ=             -1.1890   YZ=              1.7839
 Octapole moment (field-independent basis, Debye-Ang**2):
  XXX=              0.0000  YYY=              0.0000  ZZZ=              0.0000  XYY=              0.0000
  XXY=              0.0000  XXZ=              0.0000  XZZ=              0.0000  YZZ=              0.0000
  YYZ=              0.0000  XYZ=              0.0000
 Hexadecapole moment (field-independent basis, Debye-Ang**3):
 XXXX=           -760.6636 YYYY=           -254.6110 ZZZZ=            -60.9511 XXXY=              3.6131
 XXXZ=              8.1795 YYYX=             -1.3981 YYYZ=             -0.4465 ZZZX=             -1.5106
 ZZZY=             -0.3859 XXYY=           -166.3460 XXZZ=           -141.6049 YYZZ=            -49.1179
 XXYZ=              1.7104 YYXZ=             -0.2116 ZZXY=             -3.7768
 N-N= 3.777072834012D+02 E-N=-3.598687361443D+03  KE= 1.195376914815D+03
 Symmetry AG   KE= 5.997159887684D+02
 Symmetry AU   KE= 5.956609260463D+02
 Calling FoFJK, ICntrl=      2127 FMM=F ISym2X=1 I1Cent= 0 IOpClX= 0 NMat=1 NMatS=1 NMatT=0.
 ***** Axes restored to original set *****
 -------------------------------------------------------------------
 Center     Atomic                   Forces (Hartrees/Bohr)
 Number     Number              X              Y              Z
 -------------------------------------------------------------------
      1        6           0.020465991   -0.016984352    0.060237592
      2        6          -0.020465991    0.016984352   -0.060237592
      3        1          -0.003739580   -0.001679831   -0.028608162
      4        1           0.003739580    0.001679831    0.028608162
      5        9          -0.006418266   -0.027606869    0.014792848
      6        9           0.006418266    0.027606869   -0.014792848
      7       17           0.031162851    0.013838811    0.007088551
      8       17          -0.031162851   -0.013838811   -0.007088551
 -------------------------------------------------------------------
 Cartesian Forces:  Max     0.060237592 RMS     0.024843126

 GradGradGradGradGradGradGradGradGradGradGradGradGradGradGradGradGradGrad
 Berny optimization.
 FormGI is forming the generalized inverse of G from B-inverse, IUseBI=4.
 Internal  Forces:  Max     0.034814911 RMS     0.015327276
 Search for a local minimum.
 Step number   1 out of a maximum of   38
 All quantities printed in internal units (Hartrees-Bohrs-Radians)
 Mixed Optimization -- RFO/linear search
 Second derivative matrix not updated -- first step.
 ITU=  0
     Eigenvalues ---    0.00764   0.06212   0.06212   0.07557   0.07557
     Eigenvalues ---    0.16000   0.16000   0.23338   0.23338   0.24145
     Eigenvalues ---    0.24145   0.29547   0.29547   0.31856   0.31856
     Eigenvalues ---    0.32364   0.54957   0.54957
 RFO step:  Lambda=-1.82977159D-02 EMin= 7.64231764D-03
 Linear search not attempted -- first point.
 Iteration  1 RMS(Cart)=  0.04231533 RMS(Int)=  0.00058029
 Iteration  2 RMS(Cart)=  0.00078739 RMS(Int)=  0.00014444
 Iteration  3 RMS(Cart)=  0.00000035 RMS(Int)=  0.00014444
 ClnCor:  largest displacement from symmetrization is 2.36D-08 for atom     8.
 Variable       Old X    -DE/DX   Delta X   Delta X   Delta X     New X
                                 (Linear)    (Quad)   (Total)
    R1        2.83483   0.00737   0.00000   0.02157   0.02157   2.85640
    R2        2.11109  -0.02885   0.00000  -0.08565  -0.08565   2.02543
    R3        2.55170   0.03105   0.00000   0.05467   0.05467   2.60637
    R4        3.32576   0.03481   0.00000   0.11096   0.11096   3.43671
    R5        2.11109  -0.02885   0.00000  -0.08565  -0.08565   2.02543
    R6        2.55170   0.03105   0.00000   0.05467   0.05467   2.60637
    R7        3.32576   0.03481   0.00000   0.11096   0.11096   3.43671
    A1        1.93266   0.00169   0.00000   0.00896   0.00896   1.94163
    A2        1.93253  -0.01339   0.00000  -0.05506  -0.05523   1.87730
    A3        1.93240   0.00066   0.00000   0.00103   0.00083   1.93323
    A4        1.88814   0.00591   0.00000   0.02732   0.02736   1.91550
    A5        1.88836  -0.00004   0.00000   0.00471   0.00467   1.89303
    A6        1.88820   0.00566   0.00000   0.01508   0.01469   1.90289
    A7        1.93266   0.00169   0.00000   0.00896   0.00896   1.94163
    A8        1.93253  -0.01339   0.00000  -0.05506  -0.05523   1.87730
    A9        1.93240   0.00066   0.00000   0.00103   0.00083   1.93323
   A10        1.88814   0.00591   0.00000   0.02732   0.02736   1.91550
   A11        1.88836  -0.00004   0.00000   0.00471   0.00467   1.89303
   A12        1.88820   0.00566   0.00000   0.01508   0.01469   1.90289
    D1        3.14159   0.00000   0.00000   0.00000   0.00000   3.14159
    D2        1.04723   0.00025   0.00000  -0.00404  -0.00389   1.04333
    D3       -1.04704   0.00149   0.00000   0.01246   0.01238  -1.03466
    D4       -1.04723  -0.00025   0.00000   0.00404   0.00389  -1.04333
    D5        3.14159   0.00000   0.00000   0.00000   0.00000   3.14159
    D6        1.04732   0.00124   0.00000   0.01649   0.01628   1.06360
    D7        1.04704  -0.00149   0.00000  -0.01246  -0.01238   1.03466
    D8       -1.04732  -0.00124   0.00000  -0.01649  -0.01628  -1.06360
    D9        3.14159   0.00000   0.00000   0.00000   0.00000   3.14159
         Item               Value     Threshold  Converged?
 Maximum Force            0.034815     0.000450     NO 
 RMS     Force            0.015327     0.000300     NO 
 Maximum Displacement     0.107327     0.001800     NO 
 RMS     Displacement     0.042415     0.001200     NO 
 Predicted change in Energy=-9.648436D-03
 GradGradGradGradGradGradGradGradGradGradGradGradGradGradGradGradGradGrad

                          Input orientation:                          
 ---------------------------------------------------------------------
 Center     Atomic      Atomic             Coordinates (Angstroms)
 Number     Number       Type             X           Y           Z
 ---------------------------------------------------------------------
      1          6           0       -0.539606    0.397969    0.348763
      2          6           0        0.539606   -0.397969   -0.348763
      3          1           0       -0.403868    0.387954    1.411900
      4          1           0        0.403868   -0.387954   -1.411900
      5          9           0        0.468403   -1.693866    0.117996
      6          9           0       -0.468403    1.693866   -0.117996
      7         17           0        2.185162    0.278422    0.028143
      8         17           0       -2.185162   -0.278422   -0.028143
 ---------------------------------------------------------------------
                    Distance matrix (angstroms):
                    1          2          3          4          5
     1  C    0.000000
     2  C    1.511542   0.000000
     3  H    1.071814   2.146568   0.000000
     4  H    2.146568   1.071814   3.037814   0.000000
     5  F    2.333476   1.379232   2.601734   2.012498   0.000000
     6  F    1.379232   2.333476   2.012498   2.601734   3.522787
     7  Cl   2.746170   1.818631   2.937662   2.385538   2.616344
     8  Cl   1.818631   2.746170   2.385538   2.937662   3.011021
                    6          7          8
     6  F    0.000000
     7  Cl   3.011021   0.000000
     8  Cl   2.616344   4.406016   0.000000
 Stoichiometry    C2H2Cl2F2
 Framework group  CI[X(C2H2Cl2F2)]
 Deg. of freedom     9
 Full point group                 CI      NOp   2
 Largest Abelian subgroup         CI      NOp   2
 Largest concise Abelian subgroup CI      NOp   2
                         Standard orientation:                         
 ---------------------------------------------------------------------
 Center     Atomic      Atomic             Coordinates (Angstroms)
 Number     Number       Type             X           Y           Z
 ---------------------------------------------------------------------
      1          6           0       -0.539606    0.397969    0.348763
      2          6           0        0.539606   -0.397969   -0.348763
      3          1           0       -0.403868    0.387954    1.411900
      4          1           0        0.403868   -0.387954   -1.411900
      5          9           0        0.468403   -1.693866    0.117996
      6          9           0       -0.468403    1.693866   -0.117996
      7         17           0        2.185162    0.278422    0.028143
      8         17           0       -2.185162   -0.278422   -0.028143
 ---------------------------------------------------------------------
 Rotational constants (GHZ):           4.0154567           1.4145631           1.0793832
 Standard basis: 6-31G (6D, 7F)
 There are    33 symmetry adapted cartesian basis functions of AG  symmetry.
 There are    33 symmetry adapted cartesian basis functions of AU  symmetry.
 There are    33 symmetry adapted basis functions of AG  symmetry.
 There are    33 symmetry adapted basis functions of AU  symmetry.
    66 basis functions,   188 primitive gaussians,    66 cartesian basis functions
    33 alpha electrons       33 beta electrons
       nuclear repulsion energy       370.8659545362 Hartrees.
 NAtoms=    8 NActive=    8 NUniq=    4 SFac= 4.00D+00 NAtFMM=   60 NAOKFM=F Big=F
 Integral buffers will be    131072 words long.
 Raffenetti 1 integral format.
 Two-electron integral symmetry is turned on.
 One-electron integrals computed using PRISM.
 NBasis=    66 RedAO= T EigKep=  7.79D-03  NBF=    33    33
 NBsUse=    66 1.00D-06 EigRej= -1.00D+00 NBFU=    33    33
 Initial guess from the checkpoint file:  "D:\APPs\lihaibei\molecules-use\ChFClCHFCl.chk"
 B after Tr=     0.000000    0.000000    0.000000
         Rot=    0.999994    0.003247   -0.000802   -0.001241 Ang=   0.41 deg.
 Initial guess orbital symmetries:
       Occupied  (AU) (AG) (AU) (AG) (AG) (AU) (AG) (AU) (AG) (AU)
                 (AU) (AG) (AU) (AG) (AG) (AU) (AG) (AU) (AG) (AU)
                 (AU) (AG) (AG) (AU) (AG) (AU) (AU) (AG) (AG) (AU)
                 (AG) (AU) (AG)
       Virtual   (AU) (AG) (AU) (AU) (AG) (AU) (AG) (AG) (AU) (AG)
                 (AU) (AG) (AU) (AU) (AG) (AG) (AU) (AG) (AU) (AU)
                 (AG) (AU) (AG) (AG) (AU) (AU) (AG) (AU) (AU) (AG)
                 (AG) (AG) (AU)
 ExpMin= 1.43D-01 ExpMax= 2.52D+04 ExpMxC= 3.78D+03 IAcc=3 IRadAn=         5 AccDes= 0.00D+00
 Harris functional with IExCor=  205 and IRadAn=       5 diagonalized for initial guess.
 HarFok:  IExCor=  205 AccDes= 0.00D+00 IRadAn=         5 IDoV= 1 UseB2=F ITyADJ=14
 ICtDFT=  3500011 ScaDFX=  1.000000  1.000000  1.000000  1.000000
 FoFCou: FMM=F IPFlag=           0 FMFlag=      100000 FMFlg1=           0
         NFxFlg=           0 DoJE=T BraDBF=F KetDBF=T FulRan=T
         wScrn=  0.000000 ICntrl=       500 IOpCl=  0 I1Cent=   200000004 NGrid=           0
         NMat0=    1 NMatS0=      1 NMatT0=    0 NMatD0=    1 NMtDS0=    0 NMtDT0=    0
 Petite list used in FoFCou.
 Keep R1 ints in memory in symmetry-blocked form, NReq=3674533.
 Requested convergence on RMS density matrix=1.00D-08 within 128 cycles.
 Requested convergence on MAX density matrix=1.00D-06.
 Requested convergence on             energy=1.00D-06.
 No special actions if energy rises.
 SCF Done:  E(RHF) =  -1194.58093841     A.U. after   11 cycles
            NFock= 11  Conv=0.50D-08     -V/T= 1.9996
 Calling FoFJK, ICntrl=      2127 FMM=F ISym2X=1 I1Cent= 0 IOpClX= 0 NMat=1 NMatS=1 NMatT=0.
 ***** Axes restored to original set *****
 -------------------------------------------------------------------
 Center     Atomic                   Forces (Hartrees/Bohr)
 Number     Number              X              Y              Z
 -------------------------------------------------------------------
      1        6           0.013734197   -0.002883501    0.006368358
      2        6          -0.013734197    0.002883501   -0.006368358
      3        1          -0.003530901    0.000946614    0.000142533
      4        1           0.003530901   -0.000946614   -0.000142533
      5        9           0.003421187   -0.004095388    0.001839763
      6        9          -0.003421187    0.004095388   -0.001839763
      7       17           0.002496135   -0.000118730    0.001332100
      8       17          -0.002496135    0.000118730   -0.001332100
 -------------------------------------------------------------------
 Cartesian Forces:  Max     0.013734197 RMS     0.004922424

 GradGradGradGradGradGradGradGradGradGradGradGradGradGradGradGradGradGrad
 Berny optimization.
 Using GEDIIS/GDIIS optimizer.
 FormGI is forming the generalized inverse of G from B-inverse, IUseBI=4.
 Internal  Forces:  Max     0.004916413 RMS     0.002676585
 Search for a local minimum.
 Step number   2 out of a maximum of   38
 All quantities printed in internal units (Hartrees-Bohrs-Radians)
 Mixed Optimization -- RFO/linear search
 Update second derivatives using D2CorX and points    1    2
 DE= -9.36D-03 DEPred=-9.65D-03 R= 9.70D-01
 TightC=F SS=  1.41D+00  RLast= 2.34D-01 DXNew= 5.0454D-01 7.0256D-01
 Trust test= 9.70D-01 RLast= 2.34D-01 DXMaxT set to 5.05D-01
 ITU=  1  0
 Use linear search instead of GDIIS.
     Eigenvalues ---    0.00764   0.06246   0.06246   0.07762   0.07981
     Eigenvalues ---    0.15787   0.16000   0.23322   0.23524   0.24083
     Eigenvalues ---    0.24637   0.29547   0.29920   0.31856   0.32319
     Eigenvalues ---    0.33824   0.52886   0.54957
 RFO step:  Lambda=-1.25292192D-03 EMin= 7.64231764D-03
 Quartic linear search produced a step of  0.03519.
 Iteration  1 RMS(Cart)=  0.01682472 RMS(Int)=  0.00038704
 Iteration  2 RMS(Cart)=  0.00031318 RMS(Int)=  0.00027784
 Iteration  3 RMS(Cart)=  0.00000005 RMS(Int)=  0.00027784
 ClnCor:  largest displacement from symmetrization is 1.39D-08 for atom     6.
 Variable       Old X    -DE/DX   Delta X   Delta X   Delta X     New X
                                 (Linear)    (Quad)   (Total)
    R1        2.85640  -0.00032   0.00076  -0.00033   0.00043   2.85683
    R2        2.02543  -0.00031  -0.00301  -0.00375  -0.00677   2.01867
    R3        2.60637   0.00429   0.00192   0.00983   0.01176   2.61813
    R4        3.43671   0.00249   0.00390   0.01222   0.01612   3.45283
    R5        2.02543  -0.00031  -0.00301  -0.00375  -0.00677   2.01867
    R6        2.60637   0.00429   0.00192   0.00983   0.01176   2.61813
    R7        3.43671   0.00249   0.00390   0.01222   0.01612   3.45283
    A1        1.94163   0.00492   0.00032   0.03834   0.03834   1.97996
    A2        1.87730   0.00382  -0.00194   0.01242   0.01004   1.88735
    A3        1.93323  -0.00137   0.00003  -0.01291  -0.01283   1.92040
    A4        1.91550  -0.00218   0.00096   0.00292   0.00316   1.91866
    A5        1.89303  -0.00185   0.00016  -0.01406  -0.01378   1.87925
    A6        1.90289  -0.00350   0.00052  -0.02769  -0.02722   1.87568
    A7        1.94163   0.00492   0.00032   0.03834   0.03834   1.97996
    A8        1.87730   0.00382  -0.00194   0.01242   0.01004   1.88735
    A9        1.93323  -0.00137   0.00003  -0.01291  -0.01283   1.92040
   A10        1.91550  -0.00218   0.00096   0.00292   0.00316   1.91866
   A11        1.89303  -0.00185   0.00016  -0.01406  -0.01378   1.87925
   A12        1.90289  -0.00350   0.00052  -0.02769  -0.02722   1.87568
    D1        3.14159   0.00000   0.00000   0.00000   0.00000   3.14159
    D2        1.04333  -0.00267  -0.00014  -0.03419  -0.03472   1.00861
    D3       -1.03466   0.00004   0.00044  -0.00078  -0.00061  -1.03527
    D4       -1.04333   0.00267   0.00014   0.03419   0.03472  -1.00861
    D5        3.14159   0.00000   0.00000   0.00000   0.00000   3.14159
    D6        1.06360   0.00270   0.00057   0.03341   0.03411   1.09772
    D7        1.03466  -0.00004  -0.00044   0.00078   0.00061   1.03527
    D8       -1.06360  -0.00270  -0.00057  -0.03341  -0.03411  -1.09772
    D9        3.14159   0.00000   0.00000   0.00000   0.00000   3.14159
         Item               Value     Threshold  Converged?
 Maximum Force            0.004916     0.000450     NO 
 RMS     Force            0.002677     0.000300     NO 
 Maximum Displacement     0.033205     0.001800     NO 
 RMS     Displacement     0.016720     0.001200     NO 
 Predicted change in Energy=-6.484033D-04
 GradGradGradGradGradGradGradGradGradGradGradGradGradGradGradGradGradGrad

                          Input orientation:                          
 ---------------------------------------------------------------------
 Center     Atomic      Atomic             Coordinates (Angstroms)
 Number     Number       Type             X           Y           Z
 ---------------------------------------------------------------------
      1          6           0       -0.530788    0.400319    0.359680
      2          6           0        0.530788   -0.400319   -0.359680
      3          1           0       -0.418891    0.396651    1.422031
      4          1           0        0.418891   -0.396651   -1.422031
      5          9           0        0.485974   -1.700980    0.115456
      6          9           0       -0.485974    1.700980   -0.115456
      7         17           0        2.187160    0.267705    0.025930
      8         17           0       -2.187160   -0.267705   -0.025930
 ---------------------------------------------------------------------
                    Distance matrix (angstroms):
                    1          2          3          4          5
     1  C    0.000000
     2  C    1.511769   0.000000
     3  H    1.068234   2.170609   0.000000
     4  H    2.170609   1.068234   3.069184   0.000000
     5  F    2.347107   1.385453   2.631725   2.017335   0.000000
     6  F    1.385453   2.347107   2.017335   2.631725   3.545608
     7  Cl   2.741572   1.827161   2.959261   2.380070   2.603415
     8  Cl   1.827161   2.741572   2.380070   2.959261   3.036431
                    6          7          8
     6  F    0.000000
     7  Cl   3.036431   0.000000
     8  Cl   2.603415   4.407270   0.000000
 Stoichiometry    C2H2Cl2F2
 Framework group  CI[X(C2H2Cl2F2)]
 Deg. of freedom     9
 Full point group                 CI      NOp   2
 Largest Abelian subgroup         CI      NOp   2
 Largest concise Abelian subgroup CI      NOp   2
                         Standard orientation:                         
 ---------------------------------------------------------------------
 Center     Atomic      Atomic             Coordinates (Angstroms)
 Number     Number       Type             X           Y           Z
 ---------------------------------------------------------------------
      1          6           0       -0.530788    0.400319    0.359680
      2          6           0        0.530788   -0.400319   -0.359680
      3          1           0       -0.418891    0.396651    1.422031
      4          1           0        0.418891   -0.396651   -1.422031
      5          9           0        0.485974   -1.700980    0.115456
      6          9           0       -0.485974    1.700980   -0.115456
      7         17           0        2.187160    0.267705    0.025930
      8         17           0       -2.187160   -0.267705   -0.025930
 ---------------------------------------------------------------------
 Rotational constants (GHZ):           3.9864497           1.4100827           1.0757043
 Standard basis: 6-31G (6D, 7F)
 There are    33 symmetry adapted cartesian basis functions of AG  symmetry.
 There are    33 symmetry adapted cartesian basis functions of AU  symmetry.
 There are    33 symmetry adapted basis functions of AG  symmetry.
 There are    33 symmetry adapted basis functions of AU  symmetry.
    66 basis functions,   188 primitive gaussians,    66 cartesian basis functions
    33 alpha electrons       33 beta electrons
       nuclear repulsion energy       369.9985776393 Hartrees.
 NAtoms=    8 NActive=    8 NUniq=    4 SFac= 4.00D+00 NAtFMM=   60 NAOKFM=F Big=F
 Integral buffers will be    131072 words long.
 Raffenetti 1 integral format.
 Two-electron integral symmetry is turned on.
 One-electron integrals computed using PRISM.
 NBasis=    66 RedAO= T EigKep=  7.98D-03  NBF=    33    33
 NBsUse=    66 1.00D-06 EigRej= -1.00D+00 NBFU=    33    33
 Initial guess from the checkpoint file:  "D:\APPs\lihaibei\molecules-use\ChFClCHFCl.chk"
 B after Tr=     0.000000    0.000000    0.000000
         Rot=    0.999999   -0.000906   -0.000864    0.000867 Ang=  -0.17 deg.
 Initial guess orbital symmetries:
       Occupied  (AU) (AG) (AU) (AG) (AG) (AU) (AG) (AU) (AG) (AU)
                 (AU) (AG) (AU) (AG) (AG) (AU) (AG) (AU) (AG) (AU)
                 (AU) (AG) (AU) (AG) (AG) (AU) (AG) (AU) (AG) (AU)
                 (AG) (AU) (AG)
       Virtual   (AU) (AG) (AU) (AU) (AG) (AG) (AU) (AG) (AU) (AG)
                 (AU) (AG) (AU) (AU) (AG) (AG) (AU) (AG) (AU) (AU)
                 (AG) (AU) (AG) (AG) (AU) (AU) (AG) (AU) (AU) (AG)
                 (AG) (AG) (AU)
 ExpMin= 1.43D-01 ExpMax= 2.52D+04 ExpMxC= 3.78D+03 IAcc=3 IRadAn=         5 AccDes= 0.00D+00
 Harris functional with IExCor=  205 and IRadAn=       5 diagonalized for initial guess.
 HarFok:  IExCor=  205 AccDes= 0.00D+00 IRadAn=         5 IDoV= 1 UseB2=F ITyADJ=14
 ICtDFT=  3500011 ScaDFX=  1.000000  1.000000  1.000000  1.000000
 FoFCou: FMM=F IPFlag=           0 FMFlag=      100000 FMFlg1=           0
         NFxFlg=           0 DoJE=T BraDBF=F KetDBF=T FulRan=T
         wScrn=  0.000000 ICntrl=       500 IOpCl=  0 I1Cent=   200000004 NGrid=           0
         NMat0=    1 NMatS0=      1 NMatT0=    0 NMatD0=    1 NMtDS0=    0 NMtDT0=    0
 Petite list used in FoFCou.
 Keep R1 ints in memory in symmetry-blocked form, NReq=3674533.
 Requested convergence on RMS density matrix=1.00D-08 within 128 cycles.
 Requested convergence on MAX density matrix=1.00D-06.
 Requested convergence on             energy=1.00D-06.
 No special actions if energy rises.
 SCF Done:  E(RHF) =  -1194.58145740     A.U. after   11 cycles
            NFock= 11  Conv=0.21D-08     -V/T= 1.9996
 Calling FoFJK, ICntrl=      2127 FMM=F ISym2X=1 I1Cent= 0 IOpClX= 0 NMat=1 NMatS=1 NMatT=0.
 ***** Axes restored to original set *****
 -------------------------------------------------------------------
 Center     Atomic                   Forces (Hartrees/Bohr)
 Number     Number              X              Y              Z
 -------------------------------------------------------------------
      1        6           0.002701939   -0.000235814   -0.005020838
      2        6          -0.002701939    0.000235814    0.005020838
      3        1           0.001055596   -0.000173070    0.001528718
      4        1          -0.001055596    0.000173070   -0.001528718
      5        9          -0.000659536    0.000833078   -0.000651659
      6        9           0.000659536   -0.000833078    0.000651659
      7       17           0.001941666    0.001161082    0.000337962
      8       17          -0.001941666   -0.001161082   -0.000337962
 -------------------------------------------------------------------
 Cartesian Forces:  Max     0.005020838 RMS     0.001889272

 GradGradGradGradGradGradGradGradGradGradGradGradGradGradGradGradGradGrad
 Berny optimization.
 Using GEDIIS/GDIIS optimizer.
 FormGI is forming the generalized inverse of G from B-inverse, IUseBI=4.
 Internal  Forces:  Max     0.004523331 RMS     0.001264576
 Search for a local minimum.
 Step number   3 out of a maximum of   38
 All quantities printed in internal units (Hartrees-Bohrs-Radians)
 Mixed Optimization -- RFO/linear search
 Update second derivatives using D2CorX and points    1    2    3
 DE= -5.19D-04 DEPred=-6.48D-04 R= 8.00D-01
 TightC=F SS=  1.41D+00  RLast= 1.05D-01 DXNew= 8.4853D-01 3.1434D-01
 Trust test= 8.00D-01 RLast= 1.05D-01 DXMaxT set to 5.05D-01
 ITU=  1  1  0
 Use linear search instead of GDIIS.
     Eigenvalues ---    0.00764   0.05998   0.06112   0.08077   0.08422
     Eigenvalues ---    0.16000   0.16035   0.22509   0.23116   0.23862
     Eigenvalues ---    0.23966   0.29547   0.30481   0.31856   0.32958
     Eigenvalues ---    0.35753   0.54364   0.54957
 RFO step:  Lambda=-1.00524237D-04 EMin= 7.64231764D-03
 Quartic linear search produced a step of -0.15082.
 Iteration  1 RMS(Cart)=  0.00485841 RMS(Int)=  0.00003997
 Iteration  2 RMS(Cart)=  0.00000719 RMS(Int)=  0.00003969
 Iteration  3 RMS(Cart)=  0.00000000 RMS(Int)=  0.00003969
 ClnCor:  largest displacement from symmetrization is 1.33D-08 for atom     8.
 Variable       Old X    -DE/DX   Delta X   Delta X   Delta X     New X
                                 (Linear)    (Quad)   (Total)
    R1        2.85683  -0.00452  -0.00006  -0.01196  -0.01202   2.84481
    R2        2.01867   0.00163   0.00102   0.00326   0.00428   2.02295
    R3        2.61813  -0.00098  -0.00177   0.00089  -0.00088   2.61725
    R4        3.45283   0.00226  -0.00243   0.00965   0.00722   3.46005
    R5        2.01867   0.00163   0.00102   0.00326   0.00428   2.02295
    R6        2.61813  -0.00098  -0.00177   0.00089  -0.00088   2.61725
    R7        3.45283   0.00226  -0.00243   0.00965   0.00722   3.46005
    A1        1.97996  -0.00121  -0.00578   0.00072  -0.00502   1.97494
    A2        1.88735  -0.00027  -0.00151   0.00230   0.00084   1.88819
    A3        1.92040  -0.00002   0.00194  -0.00153   0.00040   1.92079
    A4        1.91866   0.00029  -0.00048  -0.00082  -0.00119   1.91747
    A5        1.87925   0.00056   0.00208  -0.00028   0.00178   1.88103
    A6        1.87568   0.00075   0.00411  -0.00049   0.00362   1.87930
    A7        1.97996  -0.00121  -0.00578   0.00072  -0.00502   1.97494
    A8        1.88735  -0.00027  -0.00151   0.00230   0.00084   1.88819
    A9        1.92040  -0.00002   0.00194  -0.00153   0.00040   1.92079
   A10        1.91866   0.00029  -0.00048  -0.00082  -0.00119   1.91747
   A11        1.87925   0.00056   0.00208  -0.00028   0.00178   1.88103
   A12        1.87568   0.00075   0.00411  -0.00049   0.00362   1.87930
    D1        3.14159   0.00000   0.00000   0.00000   0.00000   3.14159
    D2        1.00861   0.00062   0.00524  -0.00108   0.00422   1.01283
    D3       -1.03527  -0.00012   0.00009  -0.00097  -0.00084  -1.03611
    D4       -1.00861  -0.00062  -0.00524   0.00108  -0.00422  -1.01283
    D5        3.14159   0.00000   0.00000   0.00000   0.00000   3.14159
    D6        1.09772  -0.00074  -0.00514   0.00011  -0.00506   1.09266
    D7        1.03527   0.00012  -0.00009   0.00097   0.00084   1.03611
    D8       -1.09772   0.00074   0.00514  -0.00011   0.00506  -1.09266
    D9        3.14159   0.00000   0.00000   0.00000   0.00000   3.14159
         Item               Value     Threshold  Converged?
 Maximum Force            0.004523     0.000450     NO 
 RMS     Force            0.001265     0.000300     NO 
 Maximum Displacement     0.009965     0.001800     NO 
 RMS     Displacement     0.004863     0.001200     NO 
 Predicted change in Energy=-6.671510D-05
 GradGradGradGradGradGradGradGradGradGradGradGradGradGradGradGradGradGrad

                          Input orientation:                          
 ---------------------------------------------------------------------
 Center     Atomic      Atomic             Coordinates (Angstroms)
 Number     Number       Type             X           Y           Z
 ---------------------------------------------------------------------
      1          6           0       -0.529040    0.399272    0.356737
      2          6           0        0.529040   -0.399272   -0.356737
      3          1           0       -0.413618    0.394911    1.420989
      4          1           0        0.413618   -0.394911   -1.420989
      5          9           0        0.481382   -1.700050    0.116441
      6          9           0       -0.481382    1.700050   -0.116441
      7         17           0        2.188481    0.271920    0.028287
      8         17           0       -2.188481   -0.271920   -0.028287
 ---------------------------------------------------------------------
                    Distance matrix (angstroms):
                    1          2          3          4          5
     1  C    0.000000
     2  C    1.505408   0.000000
     3  H    1.070501   2.163248   0.000000
     4  H    2.163248   1.070501   3.063490   0.000000
     5  F    2.342189   1.384988   2.625210   2.017838   0.000000
     6  F    1.384988   2.342189   2.017838   2.625210   3.541444
     7  Cl   2.740259   1.830980   2.953923   2.386463   2.609717
     8  Cl   1.830980   2.740259   2.386463   2.953923   3.031282
                    6          7          8
     6  F    0.000000
     7  Cl   3.031282   0.000000
     8  Cl   2.609717   4.410982   0.000000
 Stoichiometry    C2H2Cl2F2
 Framework group  CI[X(C2H2Cl2F2)]
 Deg. of freedom     9
 Full point group                 CI      NOp   2
 Largest Abelian subgroup         CI      NOp   2
 Largest concise Abelian subgroup CI      NOp   2
                         Standard orientation:                         
 ---------------------------------------------------------------------
 Center     Atomic      Atomic             Coordinates (Angstroms)
 Number     Number       Type             X           Y           Z
 ---------------------------------------------------------------------
      1          6           0       -0.529040    0.399272    0.356737
      2          6           0        0.529040   -0.399272   -0.356737
      3          1           0       -0.413618    0.394911    1.420989
      4          1           0        0.413618   -0.394911   -1.420989
      5          9           0        0.481382   -1.700050    0.116441
      6          9           0       -0.481382    1.700050   -0.116441
      7         17           0        2.188481    0.271920    0.028287
      8         17           0       -2.188481   -0.271920   -0.028287
 ---------------------------------------------------------------------
 Rotational constants (GHZ):           3.9884833           1.4093703           1.0752419
 Standard basis: 6-31G (6D, 7F)
 There are    33 symmetry adapted cartesian basis functions of AG  symmetry.
 There are    33 symmetry adapted cartesian basis functions of AU  symmetry.
 There are    33 symmetry adapted basis functions of AG  symmetry.
 There are    33 symmetry adapted basis functions of AU  symmetry.
    66 basis functions,   188 primitive gaussians,    66 cartesian basis functions
    33 alpha electrons       33 beta electrons
       nuclear repulsion energy       369.9340714216 Hartrees.
 NAtoms=    8 NActive=    8 NUniq=    4 SFac= 4.00D+00 NAtFMM=   60 NAOKFM=F Big=F
 Integral buffers will be    131072 words long.
 Raffenetti 1 integral format.
 Two-electron integral symmetry is turned on.
 One-electron integrals computed using PRISM.
 NBasis=    66 RedAO= T EigKep=  7.88D-03  NBF=    33    33
 NBsUse=    66 1.00D-06 EigRej= -1.00D+00 NBFU=    33    33
 Initial guess from the checkpoint file:  "D:\APPs\lihaibei\molecules-use\ChFClCHFCl.chk"
 B after Tr=     0.000000    0.000000    0.000000
         Rot=    1.000000    0.000182    0.000540   -0.000363 Ang=   0.08 deg.
 Initial guess orbital symmetries:
       Occupied  (AU) (AG) (AU) (AG) (AG) (AU) (AG) (AU) (AG) (AU)
                 (AU) (AG) (AU) (AG) (AG) (AU) (AG) (AU) (AG) (AU)
                 (AU) (AG) (AG) (AU) (AG) (AU) (AG) (AU) (AG) (AU)
                 (AG) (AU) (AG)
       Virtual   (AU) (AG) (AU) (AU) (AG) (AG) (AU) (AG) (AU) (AG)
                 (AU) (AG) (AU) (AG) (AU) (AG) (AU) (AU) (AG) (AU)
                 (AG) (AU) (AG) (AG) (AU) (AU) (AG) (AU) (AU) (AG)
                 (AG) (AG) (AU)
 Keep R1 ints in memory in symmetry-blocked form, NReq=3674533.
 Requested convergence on RMS density matrix=1.00D-08 within 128 cycles.
 Requested convergence on MAX density matrix=1.00D-06.
 Requested convergence on             energy=1.00D-06.
 No special actions if energy rises.
 SCF Done:  E(RHF) =  -1194.58152899     A.U. after    9 cycles
            NFock=  9  Conv=0.76D-08     -V/T= 1.9996
 Calling FoFJK, ICntrl=      2127 FMM=F ISym2X=1 I1Cent= 0 IOpClX= 0 NMat=1 NMatS=1 NMatT=0.
 ***** Axes restored to original set *****
 -------------------------------------------------------------------
 Center     Atomic                   Forces (Hartrees/Bohr)
 Number     Number              X              Y              Z
 -------------------------------------------------------------------
      1        6           0.000742928    0.001008180   -0.000460960
      2        6          -0.000742928   -0.001008180    0.000460960
      3        1          -0.000113478   -0.000049368   -0.000005630
      4        1           0.000113478    0.000049368    0.000005630
      5        9           0.000084864    0.000862499   -0.000338275
      6        9          -0.000084864   -0.000862499    0.000338275
      7       17           0.000426183    0.000146772    0.000019353
      8       17          -0.000426183   -0.000146772   -0.000019353
 -------------------------------------------------------------------
 Cartesian Forces:  Max     0.001008180 RMS     0.000488645

 GradGradGradGradGradGradGradGradGradGradGradGradGradGradGradGradGradGrad
 Berny optimization.
 Using GEDIIS/GDIIS optimizer.
 FormGI is forming the generalized inverse of G from B-inverse, IUseBI=4.
 Internal  Forces:  Max     0.000928548 RMS     0.000284267
 Search for a local minimum.
 Step number   4 out of a maximum of   38
 All quantities printed in internal units (Hartrees-Bohrs-Radians)
 Mixed Optimization -- En-DIIS/RFO-DIIS
 Update second derivatives using D2CorX and points    1    2    3    4
 DE= -7.16D-05 DEPred=-6.67D-05 R= 1.07D+00
 TightC=F SS=  1.41D+00  RLast= 2.15D-02 DXNew= 8.4853D-01 6.4534D-02
 Trust test= 1.07D+00 RLast= 2.15D-02 DXMaxT set to 5.05D-01
 ITU=  1  1  1  0
 Use linear search instead of GDIIS.
     Eigenvalues ---    0.00764   0.06031   0.06120   0.08057   0.08404
     Eigenvalues ---    0.15622   0.16000   0.21578   0.23143   0.23605
     Eigenvalues ---    0.23982   0.29547   0.29863   0.31856   0.32760
     Eigenvalues ---    0.36509   0.54362   0.54957
 RFO step:  Lambda=-5.66536578D-06 EMin= 7.64231764D-03
 Quartic linear search produced a step of  0.07239.
 Iteration  1 RMS(Cart)=  0.00081484 RMS(Int)=  0.00000053
 Iteration  2 RMS(Cart)=  0.00000050 RMS(Int)=  0.00000036
 ClnCor:  largest displacement from symmetrization is 1.25D-08 for atom     6.
 Variable       Old X    -DE/DX   Delta X   Delta X   Delta X     New X
                                 (Linear)    (Quad)   (Total)
    R1        2.84481  -0.00018  -0.00087  -0.00029  -0.00116   2.84365
    R2        2.02295  -0.00002   0.00031  -0.00032  -0.00001   2.02295
    R3        2.61725  -0.00093  -0.00006  -0.00164  -0.00171   2.61554
    R4        3.46005   0.00044   0.00052   0.00173   0.00225   3.46230
    R5        2.02295  -0.00002   0.00031  -0.00032  -0.00001   2.02295
    R6        2.61725  -0.00093  -0.00006  -0.00164  -0.00171   2.61554
    R7        3.46005   0.00044   0.00052   0.00173   0.00225   3.46230
    A1        1.97494   0.00004  -0.00036   0.00073   0.00037   1.97531
    A2        1.88819   0.00009   0.00006   0.00066   0.00072   1.88891
    A3        1.92079   0.00011   0.00003   0.00029   0.00032   1.92111
    A4        1.91747  -0.00004  -0.00009   0.00027   0.00018   1.91765
    A5        1.88103  -0.00014   0.00013  -0.00156  -0.00143   1.87960
    A6        1.87930  -0.00007   0.00026  -0.00045  -0.00018   1.87911
    A7        1.97494   0.00004  -0.00036   0.00073   0.00037   1.97531
    A8        1.88819   0.00009   0.00006   0.00066   0.00072   1.88891
    A9        1.92079   0.00011   0.00003   0.00029   0.00032   1.92111
   A10        1.91747  -0.00004  -0.00009   0.00027   0.00018   1.91765
   A11        1.88103  -0.00014   0.00013  -0.00156  -0.00143   1.87960
   A12        1.87930  -0.00007   0.00026  -0.00045  -0.00018   1.87911
    D1        3.14159   0.00000   0.00000   0.00000   0.00000   3.14159
    D2        1.01283  -0.00004   0.00031  -0.00129  -0.00098   1.01185
    D3       -1.03611  -0.00007  -0.00006  -0.00130  -0.00136  -1.03746
    D4       -1.01283   0.00004  -0.00031   0.00129   0.00098  -1.01185
    D5        3.14159   0.00000   0.00000   0.00000   0.00000   3.14159
    D6        1.09266  -0.00003  -0.00037  -0.00001  -0.00038   1.09228
    D7        1.03611   0.00007   0.00006   0.00130   0.00136   1.03746
    D8       -1.09266   0.00003   0.00037   0.00001   0.00038  -1.09228
    D9        3.14159   0.00000   0.00000   0.00000   0.00000   3.14159
         Item               Value     Threshold  Converged?
 Maximum Force            0.000929     0.000450     NO 
 RMS     Force            0.000284     0.000300     YES
 Maximum Displacement     0.002166     0.001800     NO 
 RMS     Displacement     0.000815     0.001200     YES
 Predicted change in Energy=-3.163455D-06
 GradGradGradGradGradGradGradGradGradGradGradGradGradGradGradGradGradGrad

                          Input orientation:                          
 ---------------------------------------------------------------------
 Center     Atomic      Atomic             Coordinates (Angstroms)
 Number     Number       Type             X           Y           Z
 ---------------------------------------------------------------------
      1          6           0       -0.528722    0.399394    0.356425
      2          6           0        0.528722   -0.399394   -0.356425
      3          1           0       -0.414239    0.394801    1.420774
      4          1           0        0.414239   -0.394801   -1.420774
      5          9           0        0.481417   -1.699397    0.116274
      6          9           0       -0.481417    1.699397   -0.116274
      7         17           0        2.189628    0.271847    0.027873
      8         17           0       -2.189628   -0.271847   -0.027873
 ---------------------------------------------------------------------
                    Distance matrix (angstroms):
                    1          2          3          4          5
     1  C    0.000000
     2  C    1.504795   0.000000
     3  H    1.070498   2.162951   0.000000
     4  H    2.162951   1.070498   3.063370   0.000000
     5  F    2.341576   1.384084   2.624801   2.017176   0.000000
     6  F    1.384084   2.341576   2.017176   2.624801   3.540187
     7  Cl   2.741102   1.832172   2.955573   2.386420   2.609904
     8  Cl   1.832172   2.741102   2.386420   2.955573   3.032022
                    6          7          8
     6  F    0.000000
     7  Cl   3.032022   0.000000
     8  Cl   2.609904   4.413228   0.000000
 Stoichiometry    C2H2Cl2F2
 Framework group  CI[X(C2H2Cl2F2)]
 Deg. of freedom     9
 Full point group                 CI      NOp   2
 Largest Abelian subgroup         CI      NOp   2
 Largest concise Abelian subgroup CI      NOp   2
                         Standard orientation:                         
 ---------------------------------------------------------------------
 Center     Atomic      Atomic             Coordinates (Angstroms)
 Number     Number       Type             X           Y           Z
 ---------------------------------------------------------------------
      1          6           0       -0.528722    0.399394    0.356425
      2          6           0        0.528722   -0.399394   -0.356425
      3          1           0       -0.414239    0.394801    1.420774
      4          1           0        0.414239   -0.394801   -1.420774
      5          9           0        0.481417   -1.699397    0.116274
      6          9           0       -0.481417    1.699397   -0.116274
      7         17           0        2.189628    0.271847    0.027873
      8         17           0       -2.189628   -0.271847   -0.027873
 ---------------------------------------------------------------------
 Rotational constants (GHZ):           3.9914816           1.4080491           1.0746477
 Standard basis: 6-31G (6D, 7F)
 There are    33 symmetry adapted cartesian basis functions of AG  symmetry.
 There are    33 symmetry adapted cartesian basis functions of AU  symmetry.
 There are    33 symmetry adapted basis functions of AG  symmetry.
 There are    33 symmetry adapted basis functions of AU  symmetry.
    66 basis functions,   188 primitive gaussians,    66 cartesian basis functions
    33 alpha electrons       33 beta electrons
       nuclear repulsion energy       369.8905403463 Hartrees.
 NAtoms=    8 NActive=    8 NUniq=    4 SFac= 4.00D+00 NAtFMM=   60 NAOKFM=F Big=F
 Integral buffers will be    131072 words long.
 Raffenetti 1 integral format.
 Two-electron integral symmetry is turned on.
 One-electron integrals computed using PRISM.
 NBasis=    66 RedAO= T EigKep=  7.88D-03  NBF=    33    33
 NBsUse=    66 1.00D-06 EigRej= -1.00D+00 NBFU=    33    33
 Initial guess from the checkpoint file:  "D:\APPs\lihaibei\molecules-use\ChFClCHFCl.chk"
 B after Tr=     0.000000    0.000000    0.000000
         Rot=    1.000000    0.000011   -0.000087    0.000024 Ang=   0.01 deg.
 Initial guess orbital symmetries:
       Occupied  (AU) (AG) (AU) (AG) (AG) (AU) (AG) (AU) (AG) (AU)
                 (AU) (AG) (AU) (AG) (AG) (AU) (AG) (AU) (AG) (AU)
                 (AU) (AG) (AG) (AU) (AG) (AU) (AG) (AU) (AG) (AU)
                 (AG) (AU) (AG)
       Virtual   (AU) (AG) (AU) (AU) (AG) (AG) (AU) (AG) (AU) (AG)
                 (AU) (AG) (AU) (AG) (AU) (AG) (AU) (AU) (AG) (AU)
                 (AG) (AU) (AG) (AG) (AU) (AU) (AG) (AU) (AU) (AG)
                 (AG) (AG) (AU)
 Keep R1 ints in memory in symmetry-blocked form, NReq=3674533.
 Requested convergence on RMS density matrix=1.00D-08 within 128 cycles.
 Requested convergence on MAX density matrix=1.00D-06.
 Requested convergence on             energy=1.00D-06.
 No special actions if energy rises.
 SCF Done:  E(RHF) =  -1194.58153303     A.U. after    8 cycles
            NFock=  8  Conv=0.76D-08     -V/T= 1.9996
 Calling FoFJK, ICntrl=      2127 FMM=F ISym2X=1 I1Cent= 0 IOpClX= 0 NMat=1 NMatS=1 NMatT=0.
 ***** Axes restored to original set *****
 -------------------------------------------------------------------
 Center     Atomic                   Forces (Hartrees/Bohr)
 Number     Number              X              Y              Z
 -------------------------------------------------------------------
      1        6           0.000187929    0.000646100    0.000005950
      2        6          -0.000187929   -0.000646100   -0.000005950
      3        1          -0.000046743   -0.000070080   -0.000002286
      4        1           0.000046743    0.000070080    0.000002286
      5        9           0.000039735    0.000318441   -0.000095070
      6        9          -0.000039735   -0.000318441    0.000095070
      7       17           0.000071303    0.000076605    0.000025191
      8       17          -0.000071303   -0.000076605   -0.000025191
 -------------------------------------------------------------------
 Cartesian Forces:  Max     0.000646100 RMS     0.000220512

 GradGradGradGradGradGradGradGradGradGradGradGradGradGradGradGradGradGrad
 Berny optimization.
 Using GEDIIS/GDIIS optimizer.
 FormGI is forming the generalized inverse of G from B-inverse, IUseBI=4.
 Internal  Forces:  Max     0.000332923 RMS     0.000104967
 Search for a local minimum.
 Step number   5 out of a maximum of   38
 All quantities printed in internal units (Hartrees-Bohrs-Radians)
 Mixed Optimization -- En-DIIS/RFO-DIIS
 Swapping is turned off.
 Update second derivatives using D2CorX and points    1    2    3    4    5
 DE= -4.04D-06 DEPred=-3.16D-06 R= 1.28D+00
 TightC=F SS=  1.41D+00  RLast= 5.38D-03 DXNew= 8.4853D-01 1.6143D-02
 Trust test= 1.28D+00 RLast= 5.38D-03 DXMaxT set to 5.05D-01
 ITU=  1  1  1  1  0
     Eigenvalues ---    0.00764   0.05071   0.06028   0.08048   0.08443
     Eigenvalues ---    0.15880   0.16000   0.20087   0.23141   0.23983
     Eigenvalues ---    0.26549   0.29098   0.29547   0.31856   0.33271
     Eigenvalues ---    0.38284   0.45019   0.54957
 En-DIIS/RFO-DIIS/Sim-DIIS IScMMF=       -3 using points:     5    4
 RFO step:  Lambda=-1.68635111D-06.
 DidBck=F Rises=F RFO-DIIS coefs:    1.66555   -0.66555
 Iteration  1 RMS(Cart)=  0.00037970 RMS(Int)=  0.00000047
 Iteration  2 RMS(Cart)=  0.00000041 RMS(Int)=  0.00000032
 ClnCor:  largest displacement from symmetrization is 1.17D-08 for atom     8.
 Variable       Old X    -DE/DX   Delta X   Delta X   Delta X     New X
                                 (Linear)    (Quad)   (Total)
    R1        2.84365   0.00011  -0.00077   0.00069  -0.00008   2.84357
    R2        2.02295  -0.00001   0.00000   0.00004   0.00003   2.02298
    R3        2.61554  -0.00033  -0.00114   0.00006  -0.00108   2.61446
    R4        3.46230   0.00010   0.00150  -0.00037   0.00113   3.46343
    R5        2.02295  -0.00001   0.00000   0.00004   0.00003   2.02298
    R6        2.61554  -0.00033  -0.00114   0.00006  -0.00108   2.61446
    R7        3.46230   0.00010   0.00150  -0.00037   0.00113   3.46343
    A1        1.97531   0.00001   0.00024  -0.00020   0.00005   1.97535
    A2        1.88891   0.00005   0.00048   0.00010   0.00058   1.88950
    A3        1.92111  -0.00012   0.00021  -0.00107  -0.00086   1.92024
    A4        1.91765   0.00003   0.00012   0.00079   0.00091   1.91856
    A5        1.87960   0.00001  -0.00095   0.00015  -0.00080   1.87880
    A6        1.87911   0.00002  -0.00012   0.00024   0.00012   1.87924
    A7        1.97531   0.00001   0.00024  -0.00020   0.00005   1.97535
    A8        1.88891   0.00005   0.00048   0.00010   0.00058   1.88950
    A9        1.92111  -0.00012   0.00021  -0.00107  -0.00086   1.92024
   A10        1.91765   0.00003   0.00012   0.00079   0.00091   1.91856
   A11        1.87960   0.00001  -0.00095   0.00015  -0.00080   1.87880
   A12        1.87911   0.00002  -0.00012   0.00024   0.00012   1.87924
    D1        3.14159   0.00000   0.00000   0.00000   0.00000   3.14159
    D2        1.01185  -0.00007  -0.00065  -0.00095  -0.00160   1.01024
    D3       -1.03746  -0.00007  -0.00090  -0.00070  -0.00161  -1.03907
    D4       -1.01185   0.00007   0.00065   0.00095   0.00160  -1.01024
    D5        3.14159   0.00000   0.00000   0.00000   0.00000   3.14159
    D6        1.09228   0.00001  -0.00025   0.00025   0.00000   1.09228
    D7        1.03746   0.00007   0.00090   0.00070   0.00161   1.03907
    D8       -1.09228  -0.00001   0.00025  -0.00025   0.00000  -1.09228
    D9        3.14159   0.00000   0.00000   0.00000   0.00000   3.14159
         Item               Value     Threshold  Converged?
 Maximum Force            0.000333     0.000450     YES
 RMS     Force            0.000105     0.000300     YES
 Maximum Displacement     0.000876     0.001800     YES
 RMS     Displacement     0.000380     0.001200     YES
 Predicted change in Energy=-8.431508D-07
 Optimization completed.
    -- Stationary point found.
                           ----------------------------
                           !   Optimized Parameters   !
                           ! (Angstroms and Degrees)  !
 --------------------------                            --------------------------
 ! Name  Definition              Value          Derivative Info.                !
 --------------------------------------------------------------------------------
 ! R1    R(1,2)                  1.5048         -DE/DX =    0.0001              !
 ! R2    R(1,3)                  1.0705         -DE/DX =    0.0                 !
 ! R3    R(1,6)                  1.3841         -DE/DX =   -0.0003              !
 ! R4    R(1,8)                  1.8322         -DE/DX =    0.0001              !
 ! R5    R(2,4)                  1.0705         -DE/DX =    0.0                 !
 ! R6    R(2,5)                  1.3841         -DE/DX =   -0.0003              !
 ! R7    R(2,7)                  1.8322         -DE/DX =    0.0001              !
 ! A1    A(2,1,3)              113.1768         -DE/DX =    0.0                 !
 ! A2    A(2,1,6)              108.2267         -DE/DX =    0.0                 !
 ! A3    A(2,1,8)              110.0713         -DE/DX =   -0.0001              !
 ! A4    A(3,1,6)              109.8731         -DE/DX =    0.0                 !
 ! A5    A(3,1,8)              107.6932         -DE/DX =    0.0                 !
 ! A6    A(6,1,8)              107.6653         -DE/DX =    0.0                 !
 ! A7    A(1,2,4)              113.1768         -DE/DX =    0.0                 !
 ! A8    A(1,2,5)              108.2267         -DE/DX =    0.0                 !
 ! A9    A(1,2,7)              110.0713         -DE/DX =   -0.0001              !
 ! A10   A(4,2,5)              109.8731         -DE/DX =    0.0                 !
 ! A11   A(4,2,7)              107.6932         -DE/DX =    0.0                 !
 ! A12   A(5,2,7)              107.6653         -DE/DX =    0.0                 !
 ! D1    D(3,1,2,4)            180.0            -DE/DX =    0.0                 !
 ! D2    D(3,1,2,5)             57.9747         -DE/DX =   -0.0001              !
 ! D3    D(3,1,2,7)            -59.4423         -DE/DX =   -0.0001              !
 ! D4    D(6,1,2,4)            -57.9747         -DE/DX =    0.0001              !
 ! D5    D(6,1,2,5)            180.0            -DE/DX =    0.0                 !
 ! D6    D(6,1,2,7)             62.583          -DE/DX =    0.0                 !
 ! D7    D(8,1,2,4)             59.4423         -DE/DX =    0.0001              !
 ! D8    D(8,1,2,5)            -62.583          -DE/DX =    0.0                 !
 ! D9    D(8,1,2,7)            180.0            -DE/DX =    0.0                 !
 --------------------------------------------------------------------------------
 GradGradGradGradGradGradGradGradGradGradGradGradGradGradGradGradGradGrad

                          Input orientation:                          
 ---------------------------------------------------------------------
 Center     Atomic      Atomic             Coordinates (Angstroms)
 Number     Number       Type             X           Y           Z
 ---------------------------------------------------------------------
      1          6           0       -0.528722    0.399394    0.356425
      2          6           0        0.528722   -0.399394   -0.356425
      3          1           0       -0.414239    0.394801    1.420774
      4          1           0        0.414239   -0.394801   -1.420774
      5          9           0        0.481417   -1.699397    0.116274
      6          9           0       -0.481417    1.699397   -0.116274
      7         17           0        2.189628    0.271847    0.027873
      8         17           0       -2.189628   -0.271847   -0.027873
 ---------------------------------------------------------------------
                    Distance matrix (angstroms):
                    1          2          3          4          5
     1  C    0.000000
     2  C    1.504795   0.000000
     3  H    1.070498   2.162951   0.000000
     4  H    2.162951   1.070498   3.063370   0.000000
     5  F    2.341576   1.384084   2.624801   2.017176   0.000000
     6  F    1.384084   2.341576   2.017176   2.624801   3.540187
     7  Cl   2.741102   1.832172   2.955573   2.386420   2.609904
     8  Cl   1.832172   2.741102   2.386420   2.955573   3.032022
                    6          7          8
     6  F    0.000000
     7  Cl   3.032022   0.000000
     8  Cl   2.609904   4.413228   0.000000
 Stoichiometry    C2H2Cl2F2
 Framework group  CI[X(C2H2Cl2F2)]
 Deg. of freedom     9
 Full point group                 CI      NOp   2
 Largest Abelian subgroup         CI      NOp   2
 Largest concise Abelian subgroup CI      NOp   2
                         Standard orientation:                         
 ---------------------------------------------------------------------
 Center     Atomic      Atomic             Coordinates (Angstroms)
 Number     Number       Type             X           Y           Z
 ---------------------------------------------------------------------
      1          6           0       -0.528722    0.399394    0.356425
      2          6           0        0.528722   -0.399394   -0.356425
      3          1           0       -0.414239    0.394801    1.420774
      4          1           0        0.414239   -0.394801   -1.420774
      5          9           0        0.481417   -1.699397    0.116274
      6          9           0       -0.481417    1.699397   -0.116274
      7         17           0        2.189628    0.271847    0.027873
      8         17           0       -2.189628   -0.271847   -0.027873
 ---------------------------------------------------------------------
 Rotational constants (GHZ):           3.9914816           1.4080491           1.0746477

 **********************************************************************

            Population analysis using the SCF Density.

 **********************************************************************

 Orbital symmetries:
       Occupied  (AU) (AG) (AU) (AG) (AG) (AU) (AG) (AU) (AG) (AU)
                 (AU) (AG) (AU) (AG) (AG) (AU) (AG) (AU) (AG) (AU)
                 (AU) (AG) (AG) (AU) (AG) (AU) (AG) (AU) (AG) (AU)
                 (AG) (AU) (AG)
       Virtual   (AU) (AG) (AU) (AU) (AG) (AG) (AU) (AG) (AU) (AG)
                 (AU) (AG) (AU) (AG) (AU) (AG) (AU) (AU) (AG) (AU)
                 (AG) (AU) (AG) (AG) (AU) (AU) (AG) (AU) (AU) (AG)
                 (AG) (AG) (AU)
 The electronic state is 1-AG.
 Alpha  occ. eigenvalues -- -104.85328-104.85327 -26.34505 -26.34505 -11.44466
 Alpha  occ. eigenvalues --  -11.44400 -10.59421 -10.59421  -8.06257  -8.06257
 Alpha  occ. eigenvalues --   -8.05834  -8.05834  -8.05824  -8.05824  -1.66463
 Alpha  occ. eigenvalues --   -1.65707  -1.20230  -1.15845  -1.02828  -0.91327
 Alpha  occ. eigenvalues --   -0.79251  -0.77975  -0.73742  -0.73735  -0.69380
 Alpha  occ. eigenvalues --   -0.67141  -0.60374  -0.59411  -0.53257  -0.49942
 Alpha  occ. eigenvalues --   -0.49039  -0.48755  -0.47882
 Alpha virt. eigenvalues --    0.10723   0.16642   0.19973   0.24376   0.26701
 Alpha virt. eigenvalues --    0.34113   0.35746   0.55223   0.56942   0.61105
 Alpha virt. eigenvalues --    0.62089   0.62901   0.63088   0.64122   0.64214
 Alpha virt. eigenvalues --    0.75897   0.77138   0.82520   0.83532   0.94682
 Alpha virt. eigenvalues --    0.98213   1.12131   1.17494   1.19370   1.40172
 Alpha virt. eigenvalues --    1.58007   1.58573   1.60529   1.66204   1.68106
 Alpha virt. eigenvalues --    1.75692   2.34200   2.45360
          Condensed to atoms (all electrons):
               1          2          3          4          5          6
     1  C    5.372882   0.055605   0.361602  -0.045252  -0.029597   0.088890
     2  C    0.055605   5.372882  -0.045252   0.361602   0.088890  -0.029597
     3  H    0.361602  -0.045252   0.482770   0.003952   0.001798  -0.029495
     4  H   -0.045252   0.361602   0.003952   0.482770  -0.029495   0.001798
     5  F   -0.029597   0.088890   0.001798  -0.029495   9.395667   0.000363
     6  F    0.088890  -0.029597  -0.029495   0.001798   0.000363   9.395667
     7  Cl  -0.066458   0.205805  -0.001641  -0.047004  -0.036494   0.002988
     8  Cl   0.205805  -0.066458  -0.047004  -0.001641   0.002988  -0.036494
               7          8
     1  C   -0.066458   0.205805
     2  C    0.205805  -0.066458
     3  H   -0.001641  -0.047004
     4  H   -0.047004  -0.001641
     5  F   -0.036494   0.002988
     6  F    0.002988  -0.036494
     7  Cl  16.874164   0.004313
     8  Cl   0.004313  16.874164
 Mulliken charges:
               1
     1  C    0.056523
     2  C    0.056523
     3  H    0.273270
     4  H    0.273270
     5  F   -0.394120
     6  F   -0.394120
     7  Cl   0.064328
     8  Cl   0.064328
 Sum of Mulliken charges =   0.00000
 Mulliken charges with hydrogens summed into heavy atoms:
               1
     1  C    0.329793
     2  C    0.329793
     5  F   -0.394120
     6  F   -0.394120
     7  Cl   0.064328
     8  Cl   0.064328
 Electronic spatial extent (au):  <R**2>=            946.1153
 Charge=              0.0000 electrons
 Dipole moment (field-independent basis, Debye):
    X=              0.0000    Y=              0.0000    Z=              0.0000  Tot=              0.0000
 Quadrupole moment (field-independent basis, Debye-Ang):
   XX=            -53.0081   YY=            -54.5976   ZZ=            -43.7182
   XY=              0.8899   XZ=             -1.3032   YZ=              2.0162
 Traceless Quadrupole moment (field-independent basis, Debye-Ang):
   XX=             -2.5668   YY=             -4.1563   ZZ=              6.7232
   XY=              0.8899   XZ=             -1.3032   YZ=              2.0162
 Octapole moment (field-independent basis, Debye-Ang**2):
  XXX=              0.0000  YYY=              0.0000  ZZZ=              0.0000  XYY=              0.0000
  XXY=              0.0000  XXZ=              0.0000  XZZ=              0.0000  YZZ=              0.0000
  YYZ=              0.0000  XYZ=              0.0000
 Hexadecapole moment (field-independent basis, Debye-Ang**3):
 XXXX=           -803.3918 YYYY=           -259.9600 ZZZZ=            -60.2712 XXXY=             -1.6328
 XXXZ=              9.5600 YYYX=             -7.2332 YYYZ=              0.6875 ZZZX=             -0.8796
 ZZZY=              0.6756 XXYY=           -174.2145 XXZZ=           -148.6265 YYZZ=            -49.7591
 XXYZ=              2.2116 YYXZ=             -0.0054 ZZXY=             -5.7677
 N-N= 3.698905403463D+02 E-N=-3.582860308101D+03  KE= 1.195025932701D+03
 Symmetry AG   KE= 5.995480432549D+02
 Symmetry AU   KE= 5.954778894457D+02
 1|1|UNPC-WIN10-2T0259|FOpt|RHF|6-31G|C2H2Cl2F2|SDDX|16-Apr-2026|0||# o
 pt hf/6-31g geom=connectivity||Title Card Required||0,1|C,-0.528722387
 9,0.3993942723,0.3564250943|C,0.5287223879,-0.3993942723,-0.3564250943
 |H,-0.4142391429,0.3948008607,1.4207735771|H,0.4142391429,-0.394800860
 7,-1.4207735771|F,0.4814167706,-1.6993967124,0.1162739341|F,-0.4814167
 706,1.6993967124,-0.1162739341|Cl,2.189627537,0.2718466304,0.027872581
 1|Cl,-2.189627537,-0.2718466304,-0.0278725811||Version=EM64W-G16RevB.0
 1|State=1-AG|HF=-1194.581533|RMSD=7.576e-009|RMSF=2.205e-004|Dipole=0.
 ,0.,0.|Quadrupole=-1.9083825,-3.0901153,4.9984978,0.6616394,-0.9688668
 ,1.4989971|PG=CI [X(C2H2Cl2F2)]||@


 I do not feel obliged to believe that the same God who
 has endowed us with sense, reason, and intellect has
 intended us to forgo their use.
                   --Galileo Galilei
 Job cpu time:       0 days  0 hours  0 minutes  9.0 seconds.
 Elapsed time:       0 days  0 hours  0 minutes  6.5 seconds.
 File lengths (MBytes):  RWF=      6 Int=      0 D2E=      0 Chk=      2 Scr=      1
 Normal termination of Gaussian 16 at Thu Apr 16 11:07:26 2026.
