 Entering Link 1 = C:\G16W\l1.exe PID=      6796.
  
 Copyright (c) 1988-2017, Gaussian, Inc.  All Rights Reserved.
  
 This is part of the Gaussian(R) 16 program.  It is based on
 the Gaussian(R) 09 system (copyright 2009, Gaussian, Inc.),
 the Gaussian(R) 03 system (copyright 2003, Gaussian, Inc.),
 the Gaussian(R) 98 system (copyright 1998, Gaussian, Inc.),
 the Gaussian(R) 94 system (copyright 1995, Gaussian, Inc.),
 the Gaussian 92(TM) system (copyright 1992, Gaussian, Inc.),
 the Gaussian 90(TM) system (copyright 1990, Gaussian, Inc.),
 the Gaussian 88(TM) system (copyright 1988, Gaussian, Inc.),
 the Gaussian 86(TM) system (copyright 1986, Carnegie Mellon
 University), and the Gaussian 82(TM) system (copyright 1983,
 Carnegie Mellon University). Gaussian is a federally registered
 trademark of Gaussian, Inc.
  
 This software contains proprietary and confidential information,
 including trade secrets, belonging to Gaussian, Inc.
  
 This software is provided under written license and may be
 used, copied, transmitted, or stored only in accord with that
 written license.
  
 The following legend is applicable only to US Government
 contracts under FAR:
  
                    RESTRICTED RIGHTS LEGEND
  
 Use, reproduction and disclosure by the US Government is
 subject to restrictions as set forth in subparagraphs (a)
 and (c) of the Commercial Computer Software - Restricted
 Rights clause in FAR 52.227-19.
  
 Gaussian, Inc.
 340 Quinnipiac St., Bldg. 40, Wallingford CT 06492
  
  
 ---------------------------------------------------------------
 Warning -- This program may not be used in any manner that
 competes with the business of Gaussian, Inc. or will provide
 assistance to any competitor of Gaussian, Inc.  The licensee
 of this program is prohibited from giving any competitor of
 Gaussian, Inc. access to this program.  By using this program,
 the user acknowledges that Gaussian, Inc. is engaged in the
 business of creating and licensing software in the field of
 computational chemistry and represents and warrants to the
 licensee that it is not a competitor of Gaussian, Inc. and that
 it will not use this program in any manner prohibited above.
 ---------------------------------------------------------------
  

 Cite this work as:
 Gaussian 16, Revision B.01,
 M. J. Frisch, G. W. Trucks, H. B. Schlegel, G. E. Scuseria, 
 M. A. Robb, J. R. Cheeseman, G. Scalmani, V. Barone, 
 G. A. Petersson, H. Nakatsuji, X. Li, M. Caricato, A. V. Marenich, 
 J. Bloino, B. G. Janesko, R. Gomperts, B. Mennucci, H. P. Hratchian, 
 J. V. Ortiz, A. F. Izmaylov, J. L. Sonnenberg, D. Williams-Young, 
 F. Ding, F. Lipparini, F. Egidi, J. Goings, B. Peng, A. Petrone, 
 T. Henderson, D. Ranasinghe, V. G. Zakrzewski, J. Gao, N. Rega, 
 G. Zheng, W. Liang, M. Hada, M. Ehara, K. Toyota, R. Fukuda, 
 J. Hasegawa, M. Ishida, T. Nakajima, Y. Honda, O. Kitao, H. Nakai, 
 T. Vreven, K. Throssell, J. A. Montgomery, Jr., J. E. Peralta, 
 F. Ogliaro, M. J. Bearpark, J. J. Heyd, E. N. Brothers, K. N. Kudin, 
 V. N. Staroverov, T. A. Keith, R. Kobayashi, J. Normand, 
 K. Raghavachari, A. P. Rendell, J. C. Burant, S. S. Iyengar, 
 J. Tomasi, M. Cossi, J. M. Millam, M. Klene, C. Adamo, R. Cammi, 
 J. W. Ochterski, R. L. Martin, K. Morokuma, O. Farkas, 
 J. B. Foresman, and D. J. Fox, Gaussian, Inc., Wallingford CT, 2016.
 
 ******************************************
 Gaussian 16:  EM64W-G16RevB.01 16-Dec-2017
                16-Apr-2026 
 ******************************************
 %chk=D:\APPs\lihaibei\molecules-use\CHFClBr-C1.chk
 --------------------------------
 # opt hf/6-31g geom=connectivity
 --------------------------------
 1/18=20,19=15,38=1,57=2/1,3;
 2/9=110,12=2,17=6,18=5,40=1/2;
 3/5=1,6=6,11=9,25=1,30=1,71=1/1,2,3;
 4//1;
 5/5=2,38=5/2;
 6/7=2,8=2,9=2,10=2,28=1/1;
 7//1,2,3,16;
 1/18=20,19=15/3(2);
 2/9=110/2;
 99//99;
 2/9=110/2;
 3/5=1,6=6,11=9,25=1,30=1,71=1/1,2,3;
 4/5=5,16=3,69=1/1;
 5/5=2,38=5/2;
 7//1,2,3,16;
 1/18=20,19=15/3(-5);
 2/9=110/2;
 6/7=2,8=2,9=2,10=2,19=2,28=1/1;
 99/9=1/99;
 -------------------
 Title Card Required
 -------------------
 Symbolic Z-matrix:
 Charge =  0 Multiplicity = 1
 C                     0.71843   0.86357   0. 
 H                    -0.35157   0.86358   0. 
 F                     1.16844   1.49996   1.10227 
 Cl                    1.30508  -0.79578   0. 
 Br                    1.35511   1.76394  -1.55951 
 

 GradGradGradGradGradGradGradGradGradGradGradGradGradGradGradGradGradGrad
 Berny optimization.
 Initialization pass.
                           ----------------------------
                           !    Initial Parameters    !
                           ! (Angstroms and Degrees)  !
 --------------------------                            --------------------------
 ! Name  Definition              Value          Derivative Info.                !
 --------------------------------------------------------------------------------
 ! R1    R(1,2)                  1.07           estimate D2E/DX2                !
 ! R2    R(1,3)                  1.35           estimate D2E/DX2                !
 ! R3    R(1,4)                  1.76           estimate D2E/DX2                !
 ! R4    R(1,5)                  1.91           estimate D2E/DX2                !
 ! A1    A(2,1,3)              109.4712         estimate D2E/DX2                !
 ! A2    A(2,1,4)              109.4712         estimate D2E/DX2                !
 ! A3    A(2,1,5)              109.4712         estimate D2E/DX2                !
 ! A4    A(3,1,4)              109.4712         estimate D2E/DX2                !
 ! A5    A(3,1,5)              109.4713         estimate D2E/DX2                !
 ! A6    A(4,1,5)              109.4712         estimate D2E/DX2                !
 ! D1    D(2,1,4,3)           -120.0            estimate D2E/DX2                !
 ! D2    D(2,1,5,3)            120.0            estimate D2E/DX2                !
 ! D3    D(2,1,5,4)           -120.0            estimate D2E/DX2                !
 ! D4    D(3,1,5,4)            120.0            estimate D2E/DX2                !
 --------------------------------------------------------------------------------
 Trust Radius=3.00D-01 FncErr=1.00D-07 GrdErr=1.00D-07 EigMax=2.50D+02 EigMin=1.00D-04
 Number of steps in this run=     24 maximum allowed number of steps=    100.
 GradGradGradGradGradGradGradGradGradGradGradGradGradGradGradGradGradGrad

                          Input orientation:                          
 ---------------------------------------------------------------------
 Center     Atomic      Atomic             Coordinates (Angstroms)
 Number     Number       Type             X           Y           Z
 ---------------------------------------------------------------------
      1          6           0        0.718433    0.863570    0.000000
      2          1           0       -0.351567    0.863584    0.000000
      3          9           0        1.168440    1.499961    1.102271
      4         17           0        1.305079   -0.795781    0.000000
      5         35           0        1.355110    1.763945   -1.559509
 ---------------------------------------------------------------------
                    Distance matrix (angstroms):
                    1          2          3          4          5
     1  C    0.000000
     2  H    1.070000   0.000000
     3  F    1.350000   1.982524   0.000000
     4  Cl   1.760000   2.344774   2.550313   0.000000
     5  Br   1.910000   2.481021   2.681343   2.997793   0.000000
 Stoichiometry    CHBrClF
 Framework group  C1[X(CHBrClF)]
 Deg. of freedom     9
 Full point group                 C1      NOp   1
 Largest Abelian subgroup         C1      NOp   1
 Largest concise Abelian subgroup C1      NOp   1
                         Standard orientation:                         
 ---------------------------------------------------------------------
 Center     Atomic      Atomic             Coordinates (Angstroms)
 Number     Number       Type             X           Y           Z
 ---------------------------------------------------------------------
      1          6           0        0.558570    0.474081    0.425196
      2          1           0        0.617059    0.626252    1.482704
      3          9           0        0.776149    1.644928   -0.210633
      4         17           0        1.777231   -0.696314   -0.067389
      5         35           0       -1.176193   -0.183936   -0.028359
 ---------------------------------------------------------------------
 Rotational constants (GHZ):           6.3557938           2.1047717           1.6364318
 Standard basis: 6-31G (6D, 7F)
 There are    57 symmetry adapted cartesian basis functions of A   symmetry.
 There are    57 symmetry adapted basis functions of A   symmetry.
    57 basis functions,   171 primitive gaussians,    57 cartesian basis functions
    34 alpha electrons       34 beta electrons
       nuclear repulsion energy       325.6328856922 Hartrees.
 NAtoms=    5 NActive=    5 NUniq=    5 SFac= 1.00D+00 NAtFMM=   60 NAOKFM=F Big=F
 Integral buffers will be    131072 words long.
 Raffenetti 1 integral format.
 Two-electron integral symmetry is turned on.
 One-electron integrals computed using PRISM.
 NBasis=    57 RedAO= T EigKep=  1.56D-03  NBF=    57
 NBsUse=    57 1.00D-06 EigRej= -1.00D+00 NBFU=    57
 ExpMin= 1.43D-01 ExpMax= 5.74D+05 ExpMxC= 5.74D+03 IAcc=3 IRadAn=         5 AccDes= 0.00D+00
 Harris functional with IExCor=  205 and IRadAn=       5 diagonalized for initial guess.
 HarFok:  IExCor=  205 AccDes= 0.00D+00 IRadAn=         5 IDoV= 1 UseB2=F ITyADJ=14
 ICtDFT=  3500011 ScaDFX=  1.000000  1.000000  1.000000  1.000000
 FoFCou: FMM=F IPFlag=           0 FMFlag=      100000 FMFlg1=           0
         NFxFlg=           0 DoJE=T BraDBF=F KetDBF=T FulRan=T
         wScrn=  0.000000 ICntrl=       500 IOpCl=  0 I1Cent=   200000004 NGrid=           0
         NMat0=    1 NMatS0=      1 NMatT0=    0 NMatD0=    1 NMtDS0=    0 NMtDT0=    0
 Petite list used in FoFCou.
 Keep R1 ints in memory in canonical form, NReq=2368908.
 Requested convergence on RMS density matrix=1.00D-08 within 128 cycles.
 Requested convergence on MAX density matrix=1.00D-06.
 Requested convergence on             energy=1.00D-06.
 No special actions if energy rises.
 SCF Done:  E(RHF) =  -3167.02559132     A.U. after   13 cycles
            NFock= 13  Conv=0.23D-08     -V/T= 2.0020

 **********************************************************************

            Population analysis using the SCF Density.

 **********************************************************************

 Orbital symmetries:
       Occupied  (A) (A) (A) (A) (A) (A) (A) (A) (A) (A) (A) (A)
                 (A) (A) (A) (A) (A) (A) (A) (A) (A) (A) (A) (A)
                 (A) (A) (A) (A) (A) (A) (A) (A) (A) (A)
       Virtual   (A) (A) (A) (A) (A) (A) (A) (A) (A) (A) (A) (A)
                 (A) (A) (A) (A) (A) (A) (A) (A) (A) (A) (A)
 The electronic state is 1-A.
 Alpha  occ. eigenvalues -- -489.98890-104.85144 -64.42584 -58.58813 -58.58585
 Alpha  occ. eigenvalues --  -58.58582 -26.34315 -11.46375 -10.59485  -9.72309
 Alpha  occ. eigenvalues --   -8.06333  -8.05858  -8.05850  -7.48870  -7.47777
 Alpha  occ. eigenvalues --   -7.47763  -3.22967  -3.22541  -3.22525  -3.21291
 Alpha  occ. eigenvalues --   -3.21291  -1.67316  -1.20291  -1.06804  -0.91468
 Alpha  occ. eigenvalues --   -0.78036  -0.73479  -0.71427  -0.60036  -0.55108
 Alpha  occ. eigenvalues --   -0.49953  -0.47679  -0.44769  -0.43595
 Alpha virt. eigenvalues --    0.10956   0.17961   0.23391   0.28420   0.53768
 Alpha virt. eigenvalues --    0.60513   0.61564   0.63009   0.65587   0.68525
 Alpha virt. eigenvalues --    0.69578   0.75830   0.80642   0.83835   0.85059
 Alpha virt. eigenvalues --    1.12370   1.25714   1.58453   1.59605   1.61447
 Alpha virt. eigenvalues --    2.37385   7.19951  41.11134
          Condensed to atoms (all electrons):
               1          2          3          4          5
     1  C    5.504362   0.339397   0.045230   0.120863   0.187898
     2  H    0.339397   0.510238  -0.031604  -0.051222  -0.049882
     3  F    0.045230  -0.031604   9.427545  -0.036808  -0.041287
     4  Cl   0.120863  -0.051222  -0.036808  16.940665  -0.089530
     5  Br   0.187898  -0.049882  -0.041287  -0.089530  34.831081
 Mulliken charges:
               1
     1  C   -0.197750
     2  H    0.283074
     3  F   -0.363076
     4  Cl   0.116032
     5  Br   0.161720
 Sum of Mulliken charges =   0.00000
 Mulliken charges with hydrogens summed into heavy atoms:
               1
     1  C    0.085324
     3  F   -0.363076
     4  Cl   0.116032
     5  Br   0.161720
 Electronic spatial extent (au):  <R**2>=            628.1994
 Charge=              0.0000 electrons
 Dipole moment (field-independent basis, Debye):
    X=             -0.3250    Y=             -0.2993    Z=              1.9000  Tot=              1.9507
 Quadrupole moment (field-independent basis, Debye-Ang):
   XX=            -43.6290   YY=            -44.9354   ZZ=            -40.2418
   XY=              0.1050   XZ=              1.4807   YZ=              1.7505
 Traceless Quadrupole moment (field-independent basis, Debye-Ang):
   XX=             -0.6936   YY=             -2.0000   ZZ=              2.6936
   XY=              0.1050   XZ=              1.4807   YZ=              1.7505
 Octapole moment (field-independent basis, Debye-Ang**2):
  XXX=            -31.3479  YYY=             -2.0967  ZZZ=              1.0249  XYY=            -10.0770
  XXY=             -1.4694  XXZ=             -1.9099  XZZ=             -6.8372  YZZ=              2.7269
  YYZ=              0.4198  XYZ=              1.2797
 Hexadecapole moment (field-independent basis, Debye-Ang**3):
 XXXX=           -454.4116 YYYY=           -178.9734 ZZZZ=            -54.0658 XXXY=             12.7139
 XXXZ=              0.5847 YYYX=              5.3062 YYYZ=              0.7658 ZZZX=              1.9091
 ZZZY=             -0.0330 XXYY=           -103.0219 XXZZ=            -87.1598 YYZZ=            -37.4288
 XXYZ=              2.7069 YYXZ=              0.1360 ZZXY=              4.9385
 N-N= 3.256328856922D+02 E-N=-8.213923373845D+03  KE= 3.160568633278D+03
 Calling FoFJK, ICntrl=      2127 FMM=F ISym2X=0 I1Cent= 0 IOpClX= 0 NMat=1 NMatS=1 NMatT=0.
 ***** Axes restored to original set *****
 -------------------------------------------------------------------
 Center     Atomic                   Forces (Hartrees/Bohr)
 Number     Number              X              Y              Z
 -------------------------------------------------------------------
      1        6          -0.020703587    0.002668295   -0.009892181
      2        1           0.001453420    0.000470592   -0.000057811
      3        9           0.007890776    0.012055390    0.020802425
      4       17           0.007220768   -0.030351560    0.005397775
      5       35           0.004138622    0.015157282   -0.016250208
 -------------------------------------------------------------------
 Cartesian Forces:  Max     0.030351560 RMS     0.013390847

 GradGradGradGradGradGradGradGradGradGradGradGradGradGradGradGradGradGrad
 Berny optimization.
 FormGI is forming the generalized inverse of G from B-inverse, IUseBI=4.
 Internal  Forces:  Max     0.031022688 RMS     0.013084109
 Search for a local minimum.
 Step number   1 out of a maximum of   24
 All quantities printed in internal units (Hartrees-Bohrs-Radians)
 Mixed Optimization -- RFO/linear search
 Second derivative matrix not updated -- first step.
 The second derivative matrix:
                          R1        R2        R3        R4        A1
           R1           0.37230
           R2           0.00000   0.55021
           R3           0.00000   0.00000   0.29539
           R4           0.00000   0.00000   0.00000   0.17771
           A1           0.00000   0.00000   0.00000   0.00000   0.16000
           A2           0.00000   0.00000   0.00000   0.00000   0.00000
           A3           0.00000   0.00000   0.00000   0.00000   0.00000
           A4           0.00000   0.00000   0.00000   0.00000   0.00000
           A5           0.00000   0.00000   0.00000   0.00000   0.00000
           A6           0.00000   0.00000   0.00000   0.00000   0.00000
           D1           0.00000   0.00000   0.00000   0.00000   0.00000
           D2           0.00000   0.00000   0.00000   0.00000   0.00000
           D3           0.00000   0.00000   0.00000   0.00000   0.00000
           D4           0.00000   0.00000   0.00000   0.00000   0.00000
                          A2        A3        A4        A5        A6
           A2           0.16000
           A3           0.00000   0.16000
           A4           0.00000   0.00000   0.25000
           A5           0.00000   0.00000   0.00000   0.25000
           A6           0.00000   0.00000   0.00000   0.00000   0.25000
           D1           0.00000   0.00000   0.00000   0.00000   0.00000
           D2           0.00000   0.00000   0.00000   0.00000   0.00000
           D3           0.00000   0.00000   0.00000   0.00000   0.00000
           D4           0.00000   0.00000   0.00000   0.00000   0.00000
                          D1        D2        D3        D4
           D1           0.00238
           D2           0.00000   0.00230
           D3           0.00000   0.00000   0.00230
           D4           0.00000   0.00000   0.00000   0.00230
 ITU=  0
     Eigenvalues ---    0.05446   0.07237   0.10111   0.17771   0.21240
     Eigenvalues ---    0.23513   0.29539   0.37230   0.55021
 RFO step:  Lambda=-8.41294032D-03 EMin= 5.44572021D-02
 Linear search not attempted -- first point.
 Iteration  1 RMS(Cart)=  0.06191401 RMS(Int)=  0.00111702
 Iteration  2 RMS(Cart)=  0.00124762 RMS(Int)=  0.00026459
 Iteration  3 RMS(Cart)=  0.00000152 RMS(Int)=  0.00026459
 Iteration  4 RMS(Cart)=  0.00000000 RMS(Int)=  0.00026459
 Variable       Old X    -DE/DX   Delta X   Delta X   Delta X     New X
                                 (Linear)    (Quad)   (Total)
    R1        2.02201  -0.00145   0.00000  -0.00382  -0.00382   2.01819
    R2        2.55113   0.02530   0.00000   0.04529   0.04529   2.59642
    R3        3.32592   0.03102   0.00000   0.10211   0.10211   3.42803
    R4        3.60938   0.02179   0.00000   0.11709   0.11709   3.72647
    A1        1.91063   0.00172   0.00000  -0.01610  -0.01656   1.89408
    A2        1.91063  -0.00420   0.00000  -0.01601  -0.01588   1.89475
    A3        1.91063  -0.00466   0.00000  -0.02154  -0.02166   1.88897
    A4        1.91063  -0.00430   0.00000  -0.00881  -0.00934   1.90129
    A5        1.91063  -0.00348   0.00000  -0.00849  -0.00898   1.90165
    A6        1.91063   0.01491   0.00000   0.07094   0.07074   1.98138
    D1       -2.09439   0.00309   0.00000   0.03492   0.03489  -2.05950
    D2        2.09440  -0.00287   0.00000  -0.03810  -0.03795   2.05644
    D3       -2.09440  -0.00114   0.00000  -0.01064  -0.01031  -2.10470
    D4        2.09439   0.00174   0.00000   0.02746   0.02764   2.12204
         Item               Value     Threshold  Converged?
 Maximum Force            0.031023     0.000450     NO 
 RMS     Force            0.013084     0.000300     NO 
 Maximum Displacement     0.139047     0.001800     NO 
 RMS     Displacement     0.062451     0.001200     NO 
 Predicted change in Energy=-4.357175D-03
 GradGradGradGradGradGradGradGradGradGradGradGradGradGradGradGradGradGrad

                          Input orientation:                          
 ---------------------------------------------------------------------
 Center     Atomic      Atomic             Coordinates (Angstroms)
 Number     Number       Type             X           Y           Z
 ---------------------------------------------------------------------
      1          6           0        0.726764    0.855480   -0.009339
      2          1           0       -0.341196    0.861682   -0.007508
      3          9           0        1.168967    1.507185    1.116500
      4         17           0        1.294312   -0.866593    0.046174
      5         35           0        1.346647    1.837525   -1.603065
 ---------------------------------------------------------------------
                    Distance matrix (angstroms):
                    1          2          3          4          5
     1  C    0.000000
     2  H    1.067980   0.000000
     3  F    1.373965   1.990142   0.000000
     4  Cl   1.814036   2.380064   2.606940   0.000000
     5  Br   1.971961   2.519303   2.745310   3.167804   0.000000
 Stoichiometry    CHBrClF
 Framework group  C1[X(CHBrClF)]
 Deg. of freedom     9
 Full point group                 C1      NOp   1
 Largest Abelian subgroup         C1      NOp   1
 Largest concise Abelian subgroup C1      NOp   1
                         Standard orientation:                         
 ---------------------------------------------------------------------
 Center     Atomic      Atomic             Coordinates (Angstroms)
 Number     Number       Type             X           Y           Z
 ---------------------------------------------------------------------
      1          6           0        0.571035    0.459320    0.418207
      2          1           0        0.620765    0.607297    1.474715
      3          9           0        0.774600    1.668354   -0.201935
      4         17           0        1.894669   -0.681887   -0.067970
      5         35           0       -1.235079   -0.193895   -0.028887
 ---------------------------------------------------------------------
 Rotational constants (GHZ):           6.2980441           1.8976439           1.5037600
 Standard basis: 6-31G (6D, 7F)
 There are    57 symmetry adapted cartesian basis functions of A   symmetry.
 There are    57 symmetry adapted basis functions of A   symmetry.
    57 basis functions,   171 primitive gaussians,    57 cartesian basis functions
    34 alpha electrons       34 beta electrons
       nuclear repulsion energy       314.5731774773 Hartrees.
 NAtoms=    5 NActive=    5 NUniq=    5 SFac= 1.00D+00 NAtFMM=   60 NAOKFM=F Big=F
 Integral buffers will be    131072 words long.
 Raffenetti 1 integral format.
 Two-electron integral symmetry is turned on.
 One-electron integrals computed using PRISM.
 NBasis=    57 RedAO= T EigKep=  1.57D-03  NBF=    57
 NBsUse=    57 1.00D-06 EigRej= -1.00D+00 NBFU=    57
 Initial guess from the checkpoint file:  "D:\APPs\lihaibei\molecules-use\CHFClBr-C1.chk"
 B after Tr=     0.000000    0.000000    0.000000
         Rot=    0.999975   -0.002927    0.000304   -0.006417 Ang=  -0.81 deg.
 ExpMin= 1.43D-01 ExpMax= 5.74D+05 ExpMxC= 5.74D+03 IAcc=3 IRadAn=         5 AccDes= 0.00D+00
 Harris functional with IExCor=  205 and IRadAn=       5 diagonalized for initial guess.
 HarFok:  IExCor=  205 AccDes= 0.00D+00 IRadAn=         5 IDoV= 1 UseB2=F ITyADJ=14
 ICtDFT=  3500011 ScaDFX=  1.000000  1.000000  1.000000  1.000000
 FoFCou: FMM=F IPFlag=           0 FMFlag=      100000 FMFlg1=           0
         NFxFlg=           0 DoJE=T BraDBF=F KetDBF=T FulRan=T
         wScrn=  0.000000 ICntrl=       500 IOpCl=  0 I1Cent=   200000004 NGrid=           0
         NMat0=    1 NMatS0=      1 NMatT0=    0 NMatD0=    1 NMtDS0=    0 NMtDT0=    0
 Petite list used in FoFCou.
 Keep R1 ints in memory in canonical form, NReq=2368552.
 Requested convergence on RMS density matrix=1.00D-08 within 128 cycles.
 Requested convergence on MAX density matrix=1.00D-06.
 Requested convergence on             energy=1.00D-06.
 No special actions if energy rises.
 SCF Done:  E(RHF) =  -3167.02865958     A.U. after   12 cycles
            NFock= 12  Conv=0.44D-08     -V/T= 2.0021
 Calling FoFJK, ICntrl=      2127 FMM=F ISym2X=0 I1Cent= 0 IOpClX= 0 NMat=1 NMatS=1 NMatT=0.
 ***** Axes restored to original set *****
 -------------------------------------------------------------------
 Center     Atomic                   Forces (Hartrees/Bohr)
 Number     Number              X              Y              Z
 -------------------------------------------------------------------
      1        6          -0.004289327    0.004087859   -0.001893213
      2        1           0.000214882   -0.000845851   -0.001940470
      3        9           0.003136831    0.000010765   -0.000269125
      4       17           0.001545137    0.001979312   -0.001707481
      5       35          -0.000607522   -0.005232085    0.005810289
 -------------------------------------------------------------------
 Cartesian Forces:  Max     0.005810289 RMS     0.002873515

 GradGradGradGradGradGradGradGradGradGradGradGradGradGradGradGradGradGrad
 Berny optimization.
 Using GEDIIS/GDIIS optimizer.
 FormGI is forming the generalized inverse of G from B-inverse, IUseBI=4.
 Internal  Forces:  Max     0.007492412 RMS     0.002870115
 Search for a local minimum.
 Step number   2 out of a maximum of   24
 All quantities printed in internal units (Hartrees-Bohrs-Radians)
 Mixed Optimization -- RFO/linear search
 Update second derivatives using D2CorX and points    1    2
 DE= -3.07D-03 DEPred=-4.36D-03 R= 7.04D-01
 TightC=F SS=  1.41D+00  RLast= 1.89D-01 DXNew= 5.0454D-01 5.6841D-01
 Trust test= 7.04D-01 RLast= 1.89D-01 DXMaxT set to 5.05D-01
 The second derivative matrix:
                          R1        R2        R3        R4        A1
           R1           0.37220
           R2           0.00139   0.53299
           R3           0.00134  -0.01406   0.28738
           R4           0.00009   0.00697   0.01656   0.20906
           A1          -0.00053   0.00949   0.01164   0.00841   0.15917
           A2           0.00028  -0.00671  -0.00979  -0.01083  -0.00116
           A3           0.00017  -0.00488  -0.00769  -0.00967  -0.00149
           A4           0.00024  -0.00580  -0.00851  -0.00952  -0.00106
           A5           0.00000  -0.00091  -0.00199  -0.00357  -0.00091
           A6           0.00065  -0.00546  -0.00101   0.01304   0.00689
           D1          -0.00073   0.01453   0.01928   0.01745   0.00036
           D2           0.00061  -0.01210  -0.01607  -0.01456  -0.00031
           D3           0.00012  -0.00237  -0.00315  -0.00286  -0.00006
           D4          -0.00049   0.00973   0.01292   0.01170   0.00025
                          A2        A3        A4        A5        A6
           A2           0.16276
           A3           0.00271   0.16258
           A4           0.00244   0.00240   0.25217
           A5           0.00121   0.00108   0.00106   0.25041
           A6          -0.00642  -0.00524  -0.00560  -0.00154   0.25170
           D1          -0.00359  -0.00383  -0.00321  -0.00192   0.01200
           D2           0.00300   0.00320   0.00268   0.00160  -0.01000
           D3           0.00059   0.00063   0.00053   0.00032  -0.00196
           D4          -0.00241  -0.00257  -0.00215  -0.00129   0.00804
                          D1        D2        D3        D4
           D1           0.00606
           D2          -0.00308   0.00488
           D3          -0.00061   0.00051   0.00240
           D4           0.00247  -0.00207  -0.00041   0.00396
 ITU=  1  0
 Use linear search instead of GDIIS.
     Eigenvalues ---    0.05509   0.06838   0.10727   0.19732   0.21733
     Eigenvalues ---    0.25299   0.29824   0.37222   0.53424
 RFO step:  Lambda=-3.89780757D-04 EMin= 5.50921509D-02
 Quartic linear search produced a step of -0.19477.
 Iteration  1 RMS(Cart)=  0.02034593 RMS(Int)=  0.00025628
 Iteration  2 RMS(Cart)=  0.00021965 RMS(Int)=  0.00014246
 Iteration  3 RMS(Cart)=  0.00000002 RMS(Int)=  0.00014246
 Variable       Old X    -DE/DX   Delta X   Delta X   Delta X     New X
                                 (Linear)    (Quad)   (Total)
    R1        2.01819  -0.00022   0.00074  -0.00135  -0.00061   2.01758
    R2        2.59642   0.00079  -0.00882   0.01174   0.00292   2.59933
    R3        3.42803  -0.00145  -0.01989   0.01899  -0.00090   3.42713
    R4        3.72647  -0.00749  -0.02281  -0.00909  -0.03190   3.69457
    A1        1.89408   0.00116   0.00322   0.02655   0.02988   1.92396
    A2        1.89475   0.00180   0.00309   0.00555   0.00865   1.90341
    A3        1.88897   0.00176   0.00422   0.00191   0.00612   1.89510
    A4        1.90129   0.00107   0.00182  -0.00901  -0.00754   1.89375
    A5        1.90165  -0.00026   0.00175  -0.01013  -0.00858   1.89308
    A6        1.98138  -0.00528  -0.01378  -0.01272  -0.02670   1.95467
    D1       -2.05950  -0.00301  -0.00680  -0.02988  -0.03660  -2.09610
    D2        2.05644   0.00224   0.00739   0.02716   0.03443   2.09087
    D3       -2.10470  -0.00013   0.00201  -0.00022   0.00187  -2.10284
    D4        2.12204  -0.00236  -0.00538  -0.02738  -0.03256   2.08948
         Item               Value     Threshold  Converged?
 Maximum Force            0.007492     0.000450     NO 
 RMS     Force            0.002870     0.000300     NO 
 Maximum Displacement     0.037650     0.001800     NO 
 RMS     Displacement     0.020449     0.001200     NO 
 Predicted change in Energy=-3.142368D-04
 GradGradGradGradGradGradGradGradGradGradGradGradGradGradGradGradGradGrad

                          Input orientation:                          
 ---------------------------------------------------------------------
 Center     Atomic      Atomic             Coordinates (Angstroms)
 Number     Number       Type             X           Y           Z
 ---------------------------------------------------------------------
      1          6           0        0.713801    0.860599   -0.005222
      2          1           0       -0.353822    0.861829   -0.013598
      3          9           0        1.181520    1.509137    1.114001
      4         17           0        1.303683   -0.853888    0.034367
      5         35           0        1.350313    1.817602   -1.586786
 ---------------------------------------------------------------------
                    Distance matrix (angstroms):
                    1          2          3          4          5
     1  C    0.000000
     2  H    1.067656   0.000000
     3  F    1.375508   2.011905   0.000000
     4  Cl   1.813558   2.386065   2.600850   0.000000
     5  Br   1.955082   2.508485   2.723580   3.125247   0.000000
 Stoichiometry    CHBrClF
 Framework group  C1[X(CHBrClF)]
 Deg. of freedom     9
 Full point group                 C1      NOp   1
 Largest Abelian subgroup         C1      NOp   1
 Largest concise Abelian subgroup C1      NOp   1
                         Standard orientation:                         
 ---------------------------------------------------------------------
 Center     Atomic      Atomic             Coordinates (Angstroms)
 Number     Number       Type             X           Y           Z
 ---------------------------------------------------------------------
      1          6           0        0.561751    0.468514    0.435462
      2          1           0        0.607750    0.605976    1.493233
      3          9           0        0.762227    1.666957   -0.209183
      4         17           0        1.869169   -0.682424   -0.069506
      5         35           0       -1.217548   -0.194813   -0.029764
 ---------------------------------------------------------------------
 Rotational constants (GHZ):           6.2695477           1.9484016           1.5365420
 Standard basis: 6-31G (6D, 7F)
 There are    57 symmetry adapted cartesian basis functions of A   symmetry.
 There are    57 symmetry adapted basis functions of A   symmetry.
    57 basis functions,   171 primitive gaussians,    57 cartesian basis functions
    34 alpha electrons       34 beta electrons
       nuclear repulsion energy       316.9520532562 Hartrees.
 NAtoms=    5 NActive=    5 NUniq=    5 SFac= 1.00D+00 NAtFMM=   60 NAOKFM=F Big=F
 Integral buffers will be    131072 words long.
 Raffenetti 1 integral format.
 Two-electron integral symmetry is turned on.
 One-electron integrals computed using PRISM.
 NBasis=    57 RedAO= T EigKep=  1.56D-03  NBF=    57
 NBsUse=    57 1.00D-06 EigRej= -1.00D+00 NBFU=    57
 Initial guess from the checkpoint file:  "D:\APPs\lihaibei\molecules-use\CHFClBr-C1.chk"
 B after Tr=     0.000000    0.000000    0.000000
         Rot=    1.000000    0.000648    0.000068   -0.000275 Ang=   0.08 deg.
 ExpMin= 1.43D-01 ExpMax= 5.74D+05 ExpMxC= 5.74D+03 IAcc=3 IRadAn=         5 AccDes= 0.00D+00
 Harris functional with IExCor=  205 and IRadAn=       5 diagonalized for initial guess.
 HarFok:  IExCor=  205 AccDes= 0.00D+00 IRadAn=         5 IDoV= 1 UseB2=F ITyADJ=14
 ICtDFT=  3500011 ScaDFX=  1.000000  1.000000  1.000000  1.000000
 FoFCou: FMM=F IPFlag=           0 FMFlag=      100000 FMFlg1=           0
         NFxFlg=           0 DoJE=T BraDBF=F KetDBF=T FulRan=T
         wScrn=  0.000000 ICntrl=       500 IOpCl=  0 I1Cent=   200000004 NGrid=           0
         NMat0=    1 NMatS0=      1 NMatT0=    0 NMatD0=    1 NMtDS0=    0 NMtDT0=    0
 Petite list used in FoFCou.
 Keep R1 ints in memory in canonical form, NReq=2368610.
 Requested convergence on RMS density matrix=1.00D-08 within 128 cycles.
 Requested convergence on MAX density matrix=1.00D-06.
 Requested convergence on             energy=1.00D-06.
 No special actions if energy rises.
 SCF Done:  E(RHF) =  -3167.02897302     A.U. after   11 cycles
            NFock= 11  Conv=0.58D-08     -V/T= 2.0021
 Calling FoFJK, ICntrl=      2127 FMM=F ISym2X=0 I1Cent= 0 IOpClX= 0 NMat=1 NMatS=1 NMatT=0.
 ***** Axes restored to original set *****
 -------------------------------------------------------------------
 Center     Atomic                   Forces (Hartrees/Bohr)
 Number     Number              X              Y              Z
 -------------------------------------------------------------------
      1        6           0.001514931    0.001786206   -0.001723430
      2        1           0.000217135   -0.000096043    0.001463271
      3        9          -0.001444542   -0.000599605   -0.000077284
      4       17          -0.000137903   -0.000616290    0.000082054
      5       35          -0.000149621   -0.000474268    0.000255389
 -------------------------------------------------------------------
 Cartesian Forces:  Max     0.001786206 RMS     0.000959986

 GradGradGradGradGradGradGradGradGradGradGradGradGradGradGradGradGradGrad
 Berny optimization.
 Using GEDIIS/GDIIS optimizer.
 FormGI is forming the generalized inverse of G from B-inverse, IUseBI=4.
 Internal  Forces:  Max     0.001403529 RMS     0.000649941
 Search for a local minimum.
 Step number   3 out of a maximum of   24
 All quantities printed in internal units (Hartrees-Bohrs-Radians)
 Mixed Optimization -- En-DIIS/RFO-DIIS
 Update second derivatives using D2CorX and points    1    2    3
 DE= -3.13D-04 DEPred=-3.14D-04 R= 9.97D-01
 TightC=F SS=  1.41D+00  RLast= 8.04D-02 DXNew= 8.4853D-01 2.4120D-01
 Trust test= 9.97D-01 RLast= 8.04D-02 DXMaxT set to 5.05D-01
 The second derivative matrix:
                          R1        R2        R3        R4        A1
           R1           0.37204
           R2           0.00223   0.54099
           R3           0.00174  -0.01534   0.28409
           R4          -0.00207   0.00310   0.01533   0.18505
           A1           0.00148   0.00326   0.00863   0.03452   0.13389
           A2           0.00084  -0.00367  -0.00921  -0.00689  -0.00723
           A3           0.00069  -0.00640  -0.00790  -0.00173  -0.00837
           A4          -0.00087   0.00561  -0.00493  -0.03042   0.01473
           A5          -0.00093   0.00023  -0.00069  -0.01336   0.01006
           A6          -0.00210   0.00062   0.00090  -0.02449   0.04203
           D1          -0.00027  -0.00544   0.01462   0.03954  -0.00990
           D2           0.00050  -0.00264  -0.01377  -0.02353   0.00319
           D3           0.00026  -0.00493  -0.00367   0.00113  -0.00242
           D4          -0.00024  -0.00229   0.01010   0.02465  -0.00560
                          A2        A3        A4        A5        A6
           A2           0.16265
           A3           0.00082   0.16059
           A4           0.00870   0.00640   0.24671
           A5           0.00314   0.00406  -0.00695   0.24590
           A6           0.00205   0.00479  -0.02785  -0.01643   0.20157
           D1          -0.01203  -0.00603  -0.00737   0.00525   0.02738
           D2           0.00669   0.00382   0.00558  -0.00125  -0.01526
           D3          -0.00073   0.00003   0.00069   0.00165   0.00156
           D4          -0.00742  -0.00379  -0.00489   0.00290   0.01681
                          D1        D2        D3        D4
           D1           0.02716
           D2          -0.01385   0.01026
           D3           0.00153  -0.00067   0.00255
           D4           0.01538  -0.00863   0.00092   0.01185
 ITU=  1  1  0
 Use linear search instead of GDIIS.
     Eigenvalues ---    0.05859   0.07883   0.11136   0.18471   0.21739
     Eigenvalues ---    0.23502   0.28923   0.37210   0.54211
 RFO step:  Lambda=-3.69544334D-05 EMin= 5.85939329D-02
 Quartic linear search produced a step of -0.10517.
 Iteration  1 RMS(Cart)=  0.00425985 RMS(Int)=  0.00002452
 Iteration  2 RMS(Cart)=  0.00001603 RMS(Int)=  0.00001763
 Iteration  3 RMS(Cart)=  0.00000000 RMS(Int)=  0.00001763
 Variable       Old X    -DE/DX   Delta X   Delta X   Delta X     New X
                                 (Linear)    (Quad)   (Total)
    R1        2.01758  -0.00023   0.00006  -0.00064  -0.00057   2.01701
    R2        2.59933  -0.00084  -0.00031  -0.00093  -0.00124   2.59809
    R3        3.42713   0.00054   0.00009   0.00130   0.00140   3.42853
    R4        3.69457  -0.00049   0.00335  -0.00798  -0.00462   3.68995
    A1        1.92396  -0.00095  -0.00314  -0.00677  -0.00993   1.91402
    A2        1.90341  -0.00038  -0.00091  -0.00227  -0.00319   1.90022
    A3        1.89510   0.00071  -0.00064   0.00738   0.00674   1.90184
    A4        1.89375  -0.00005   0.00079  -0.00026   0.00057   1.89432
    A5        1.89308   0.00091   0.00090   0.00452   0.00545   1.89852
    A6        1.95467  -0.00026   0.00281  -0.00279   0.00005   1.95472
    D1       -2.09610   0.00140   0.00385   0.00968   0.01351  -2.08260
    D2        2.09087  -0.00021  -0.00362  -0.00127  -0.00488   2.08599
    D3       -2.10284   0.00016  -0.00020  -0.00034  -0.00055  -2.10339
    D4        2.08948   0.00038   0.00342   0.00093   0.00433   2.09381
         Item               Value     Threshold  Converged?
 Maximum Force            0.001404     0.000450     NO 
 RMS     Force            0.000650     0.000300     NO 
 Maximum Displacement     0.009347     0.001800     NO 
 RMS     Displacement     0.004263     0.001200     NO 
 Predicted change in Energy=-2.320682D-05
 GradGradGradGradGradGradGradGradGradGradGradGradGradGradGradGradGradGrad

                          Input orientation:                          
 ---------------------------------------------------------------------
 Center     Atomic      Atomic             Coordinates (Angstroms)
 Number     Number       Type             X           Y           Z
 ---------------------------------------------------------------------
      1          6           0        0.715626    0.862298   -0.007612
      2          1           0       -0.351728    0.861861   -0.008652
      3          9           0        1.176944    1.508718    1.114683
      4         17           0        1.303210   -0.853743    0.032685
      5         35           0        1.351442    1.816144   -1.588342
 ---------------------------------------------------------------------
                    Distance matrix (angstroms):
                    1          2          3          4          5
     1  C    0.000000
     2  H    1.067354   0.000000
     3  F    1.374852   2.004281   0.000000
     4  Cl   1.814298   2.384077   2.601515   0.000000
     5  Br   1.952637   2.511347   2.726042   3.123836   0.000000
 Stoichiometry    CHBrClF
 Framework group  C1[X(CHBrClF)]
 Deg. of freedom     9
 Full point group                 C1      NOp   1
 Largest Abelian subgroup         C1      NOp   1
 Largest concise Abelian subgroup C1      NOp   1
                         Standard orientation:                         
 ---------------------------------------------------------------------
 Center     Atomic      Atomic             Coordinates (Angstroms)
 Number     Number       Type             X           Y           Z
 ---------------------------------------------------------------------
      1          6           0        0.559960    0.469181    0.432440
      2          1           0        0.612799    0.613094    1.488727
      3          9           0        0.765181    1.667961   -0.208677
      4         17           0        1.867576   -0.684286   -0.068888
      5         35           0       -1.217371   -0.194485   -0.029548
 ---------------------------------------------------------------------
 Rotational constants (GHZ):           6.2613226           1.9501145           1.5366156
 Standard basis: 6-31G (6D, 7F)
 There are    57 symmetry adapted cartesian basis functions of A   symmetry.
 There are    57 symmetry adapted basis functions of A   symmetry.
    57 basis functions,   171 primitive gaussians,    57 cartesian basis functions
    34 alpha electrons       34 beta electrons
       nuclear repulsion energy       317.0078876658 Hartrees.
 NAtoms=    5 NActive=    5 NUniq=    5 SFac= 1.00D+00 NAtFMM=   60 NAOKFM=F Big=F
 Integral buffers will be    131072 words long.
 Raffenetti 1 integral format.
 Two-electron integral symmetry is turned on.
 One-electron integrals computed using PRISM.
 NBasis=    57 RedAO= T EigKep=  1.56D-03  NBF=    57
 NBsUse=    57 1.00D-06 EigRej= -1.00D+00 NBFU=    57
 Initial guess from the checkpoint file:  "D:\APPs\lihaibei\molecules-use\CHFClBr-C1.chk"
 B after Tr=     0.000000    0.000000    0.000000
         Rot=    1.000000    0.000309    0.000008    0.000386 Ang=   0.06 deg.
 Keep R1 ints in memory in canonical form, NReq=2368595.
 Requested convergence on RMS density matrix=1.00D-08 within 128 cycles.
 Requested convergence on MAX density matrix=1.00D-06.
 Requested convergence on             energy=1.00D-06.
 No special actions if energy rises.
 SCF Done:  E(RHF) =  -3167.02899905     A.U. after   10 cycles
            NFock= 10  Conv=0.28D-08     -V/T= 2.0021
 Calling FoFJK, ICntrl=      2127 FMM=F ISym2X=0 I1Cent= 0 IOpClX= 0 NMat=1 NMatS=1 NMatT=0.
 ***** Axes restored to original set *****
 -------------------------------------------------------------------
 Center     Atomic                   Forces (Hartrees/Bohr)
 Number     Number              X              Y              Z
 -------------------------------------------------------------------
      1        6           0.000150674    0.000794405   -0.000531226
      2        1          -0.000102963   -0.000123257    0.000129258
      3        9          -0.000047834    0.000006599    0.000134447
      4       17           0.000089448   -0.000554621    0.000060756
      5       35          -0.000089325   -0.000123127    0.000206765
 -------------------------------------------------------------------
 Cartesian Forces:  Max     0.000794405 RMS     0.000303763

 GradGradGradGradGradGradGradGradGradGradGradGradGradGradGradGradGradGrad
 Berny optimization.
 Using GEDIIS/GDIIS optimizer.
 FormGI is forming the generalized inverse of G from B-inverse, IUseBI=4.
 Internal  Forces:  Max     0.000554902 RMS     0.000184936
 Search for a local minimum.
 Step number   4 out of a maximum of   24
 All quantities printed in internal units (Hartrees-Bohrs-Radians)
 Mixed Optimization -- En-DIIS/RFO-DIIS
 Swapping is turned off.
 Update second derivatives using D2CorX and points    1    2    3    4
 DE= -2.60D-05 DEPred=-2.32D-05 R= 1.12D+00
 TightC=F SS=  1.41D+00  RLast= 2.08D-02 DXNew= 8.4853D-01 6.2547D-02
 Trust test= 1.12D+00 RLast= 2.08D-02 DXMaxT set to 5.05D-01
 The second derivative matrix:
                          R1        R2        R3        R4        A1
           R1           0.37381
           R2           0.00639   0.53956
           R3           0.00573  -0.01430   0.26813
           R4          -0.00150   0.00282   0.02831   0.17723
           A1           0.00290  -0.02592   0.00190   0.01165   0.09371
           A2          -0.00072  -0.01114  -0.00455  -0.01643  -0.02125
           A3           0.00053  -0.00121  -0.02139   0.01163   0.01594
           A4          -0.00304   0.02014   0.01420  -0.02872   0.01899
           A5          -0.00226   0.01653  -0.00399   0.00389   0.04248
           A6           0.00133   0.02768   0.02178  -0.01311   0.05056
           D1          -0.00642  -0.03907  -0.00840   0.02436  -0.02462
           D2           0.00013   0.00611  -0.00297  -0.02203   0.00356
           D3          -0.00006  -0.00828  -0.00693   0.00001  -0.00212
           D4          -0.00019  -0.01439  -0.00395   0.02204  -0.00569
                          A2        A3        A4        A5        A6
           A2           0.15694
           A3           0.01249   0.14227
           A4           0.00718   0.00885   0.24027
           A5           0.01603  -0.01648  -0.00857   0.21982
           A6           0.00086  -0.00204  -0.03049  -0.02598   0.21521
           D1          -0.01097   0.00502  -0.00293   0.02062   0.00919
           D2           0.00517   0.00500   0.00327  -0.00141  -0.01334
           D3          -0.00019   0.00021   0.00070   0.00185  -0.00067
           D4          -0.00536  -0.00479  -0.00257   0.00325   0.01267
                          D1        D2        D3        D4
           D1           0.05303
           D2          -0.01589   0.00990
           D3           0.00430  -0.00108   0.00290
           D4           0.02019  -0.00867   0.00168   0.01265
 ITU=  1  1  1  0
     Eigenvalues ---    0.05968   0.07762   0.09085   0.17982   0.21805
     Eigenvalues ---    0.23492   0.28689   0.37420   0.54104
 En-DIIS/RFO-DIIS/Sim-DIIS IScMMF=       -3 using points:     4    3
 RFO step:  Lambda=-3.13048904D-06.
 DidBck=F Rises=F RFO-DIIS coefs:    1.17253   -0.17253
 Iteration  1 RMS(Cart)=  0.00082188 RMS(Int)=  0.00000196
 Iteration  2 RMS(Cart)=  0.00000092 RMS(Int)=  0.00000176
 Variable       Old X    -DE/DX   Delta X   Delta X   Delta X     New X
                                 (Linear)    (Quad)   (Total)
    R1        2.01701   0.00010  -0.00010   0.00036   0.00026   2.01727
    R2        2.59809   0.00010  -0.00021   0.00054   0.00033   2.59842
    R3        3.42853   0.00055   0.00024   0.00231   0.00255   3.43107
    R4        3.68995  -0.00026  -0.00080  -0.00163  -0.00243   3.68752
    A1        1.91402  -0.00005  -0.00171   0.00082  -0.00090   1.91312
    A2        1.90022  -0.00015  -0.00055  -0.00124  -0.00179   1.89843
    A3        1.90184   0.00009   0.00116   0.00047   0.00164   1.90348
    A4        1.89432  -0.00005   0.00010  -0.00035  -0.00026   1.89406
    A5        1.89852   0.00005   0.00094  -0.00005   0.00089   1.89942
    A6        1.95472   0.00011   0.00001   0.00037   0.00038   1.95510
    D1       -2.08260   0.00017   0.00233  -0.00006   0.00226  -2.08033
    D2        2.08599   0.00002  -0.00084   0.00124   0.00039   2.08639
    D3       -2.10339   0.00006  -0.00010   0.00100   0.00090  -2.10249
    D4        2.09381   0.00004   0.00075  -0.00024   0.00051   2.09431
         Item               Value     Threshold  Converged?
 Maximum Force            0.000555     0.000450     NO 
 RMS     Force            0.000185     0.000300     YES
 Maximum Displacement     0.001624     0.001800     YES
 RMS     Displacement     0.000822     0.001200     YES
 Predicted change in Energy=-1.565179D-06
 GradGradGradGradGradGradGradGradGradGradGradGradGradGradGradGradGradGrad

                          Input orientation:                          
 ---------------------------------------------------------------------
 Center     Atomic      Atomic             Coordinates (Angstroms)
 Number     Number       Type             X           Y           Z
 ---------------------------------------------------------------------
      1          6           0        0.715947    0.863157   -0.008304
      2          1           0       -0.351545    0.861433   -0.008162
      3          9           0        1.176621    1.509068    1.114762
      4         17           0        1.303009   -0.854473    0.032582
      5         35           0        1.351463    1.816093   -1.588115
 ---------------------------------------------------------------------
                    Distance matrix (angstroms):
                    1          2          3          4          5
     1  C    0.000000
     2  H    1.067493   0.000000
     3  F    1.375027   2.003916   0.000000
     4  Cl   1.815645   2.384018   2.602578   0.000000
     5  Br   1.951351   2.511547   2.725872   3.124248   0.000000
 Stoichiometry    CHBrClF
 Framework group  C1[X(CHBrClF)]
 Deg. of freedom     9
 Full point group                 C1      NOp   1
 Largest Abelian subgroup         C1      NOp   1
 Largest concise Abelian subgroup C1      NOp   1
                         Standard orientation:                         
 ---------------------------------------------------------------------
 Center     Atomic      Atomic             Coordinates (Angstroms)
 Number     Number       Type             X           Y           Z
 ---------------------------------------------------------------------
      1          6           0        0.558584    0.469420    0.432070
      2          1           0        0.613196    0.613464    1.488390
      3          9           0        0.764198    1.668605   -0.208535
      4         17           0        1.868240   -0.684049   -0.068809
      5         35           0       -1.217216   -0.194817   -0.029550
 ---------------------------------------------------------------------
 Rotational constants (GHZ):           6.2584993           1.9500823           1.5363666
 Standard basis: 6-31G (6D, 7F)
 There are    57 symmetry adapted cartesian basis functions of A   symmetry.
 There are    57 symmetry adapted basis functions of A   symmetry.
    57 basis functions,   171 primitive gaussians,    57 cartesian basis functions
    34 alpha electrons       34 beta electrons
       nuclear repulsion energy       316.9980095813 Hartrees.
 NAtoms=    5 NActive=    5 NUniq=    5 SFac= 1.00D+00 NAtFMM=   60 NAOKFM=F Big=F
 Integral buffers will be    131072 words long.
 Raffenetti 1 integral format.
 Two-electron integral symmetry is turned on.
 One-electron integrals computed using PRISM.
 NBasis=    57 RedAO= T EigKep=  1.56D-03  NBF=    57
 NBsUse=    57 1.00D-06 EigRej= -1.00D+00 NBFU=    57
 Initial guess from the checkpoint file:  "D:\APPs\lihaibei\molecules-use\CHFClBr-C1.chk"
 B after Tr=     0.000000    0.000000    0.000000
         Rot=    1.000000    0.000001    0.000017   -0.000176 Ang=   0.02 deg.
 Keep R1 ints in memory in canonical form, NReq=2368595.
 Requested convergence on RMS density matrix=1.00D-08 within 128 cycles.
 Requested convergence on MAX density matrix=1.00D-06.
 Requested convergence on             energy=1.00D-06.
 No special actions if energy rises.
 SCF Done:  E(RHF) =  -3167.02900085     A.U. after    8 cycles
            NFock=  8  Conv=0.61D-08     -V/T= 2.0021
 Calling FoFJK, ICntrl=      2127 FMM=F ISym2X=0 I1Cent= 0 IOpClX= 0 NMat=1 NMatS=1 NMatT=0.
 ***** Axes restored to original set *****
 -------------------------------------------------------------------
 Center     Atomic                   Forces (Hartrees/Bohr)
 Number     Number              X              Y              Z
 -------------------------------------------------------------------
      1        6          -0.000063982    0.000210374   -0.000014327
      2        1          -0.000000847   -0.000036697   -0.000011644
      3        9           0.000024274   -0.000037173   -0.000022329
      4       17           0.000042099   -0.000136638    0.000029645
      5       35          -0.000001543    0.000000135    0.000018654
 -------------------------------------------------------------------
 Cartesian Forces:  Max     0.000210374 RMS     0.000070323

 GradGradGradGradGradGradGradGradGradGradGradGradGradGradGradGradGradGrad
 Berny optimization.
 Using GEDIIS/GDIIS optimizer.
 FormGI is forming the generalized inverse of G from B-inverse, IUseBI=4.
 Internal  Forces:  Max     0.000143541 RMS     0.000045152
 Search for a local minimum.
 Step number   5 out of a maximum of   24
 All quantities printed in internal units (Hartrees-Bohrs-Radians)
 Mixed Optimization -- En-DIIS/RFO-DIIS
 Swapping is turned off.
 Update second derivatives using D2CorX and points    1    2    3    4    5
 DE= -1.80D-06 DEPred=-1.57D-06 R= 1.15D+00
 TightC=F SS=  1.41D+00  RLast= 5.16D-03 DXNew= 8.4853D-01 1.5477D-02
 Trust test= 1.15D+00 RLast= 5.16D-03 DXMaxT set to 5.05D-01
 The second derivative matrix:
                          R1        R2        R3        R4        A1
           R1           0.37476
           R2           0.00611   0.53973
           R3           0.00348  -0.01353   0.23522
           R4          -0.00146  -0.00004   0.03780   0.17759
           A1           0.00148  -0.02765   0.00043   0.00937   0.09604
           A2           0.00031  -0.00872   0.01539  -0.02596  -0.02165
           A3           0.00073  -0.00236  -0.02870   0.01388   0.01627
           A4          -0.00440   0.02476   0.01512  -0.02572   0.02084
           A5          -0.00315   0.01628  -0.01668   0.01200   0.04363
           A6           0.00127   0.02478   0.01089  -0.00286   0.04855
           D1          -0.00519  -0.02876  -0.00206   0.01087  -0.02939
           D2          -0.00082   0.00795  -0.00216  -0.02035   0.00539
           D3           0.00175  -0.00649   0.00121  -0.00652  -0.00482
           D4           0.00256  -0.01445   0.00338   0.01383  -0.01021
                          A2        A3        A4        A5        A6
           A2           0.14865
           A3           0.01689   0.14006
           A4           0.00886   0.00819   0.23903
           A5           0.02221  -0.02016  -0.01044   0.21450
           A6           0.00274  -0.00500  -0.03140  -0.02752   0.22070
           D1          -0.00779   0.01171  -0.00531   0.02056   0.00219
           D2           0.00620   0.00394   0.00338  -0.00267  -0.01453
           D3          -0.00266   0.00324   0.00027   0.00398  -0.00070
           D4          -0.00885  -0.00070  -0.00311   0.00665   0.01383
                          D1        D2        D3        D4
           D1           0.05015
           D2          -0.01406   0.01001
           D3           0.00831  -0.00130   0.00444
           D4           0.02237  -0.00901   0.00344   0.01474
 ITU=  1  1  1  1  0
     Eigenvalues ---    0.05896   0.07627   0.08879   0.17349   0.21769
     Eigenvalues ---    0.23759   0.26642   0.37480   0.54075
 En-DIIS/RFO-DIIS/Sim-DIIS IScMMF=       -3 using points:     5    4    3
 RFO step:  Lambda=-1.81459552D-07.
 DidBck=F Rises=F RFO-DIIS coefs:    1.30483   -0.35308    0.04825
 Iteration  1 RMS(Cart)=  0.00024392 RMS(Int)=  0.00000031
 Iteration  2 RMS(Cart)=  0.00000007 RMS(Int)=  0.00000030
 Variable       Old X    -DE/DX   Delta X   Delta X   Delta X     New X
                                 (Linear)    (Quad)   (Total)
    R1        2.01727   0.00000   0.00011  -0.00012  -0.00001   2.01726
    R2        2.59842  -0.00003   0.00016  -0.00019  -0.00003   2.59839
    R3        3.43107   0.00014   0.00071   0.00009   0.00080   3.43187
    R4        3.68752  -0.00002  -0.00052   0.00022  -0.00030   3.68722
    A1        1.91312   0.00003   0.00020   0.00006   0.00027   1.91339
    A2        1.89843  -0.00003  -0.00039   0.00000  -0.00039   1.89804
    A3        1.90348   0.00001   0.00017   0.00021   0.00039   1.90386
    A4        1.89406  -0.00004  -0.00011  -0.00031  -0.00042   1.89364
    A5        1.89942  -0.00001   0.00001   0.00003   0.00004   1.89946
    A6        1.95510   0.00005   0.00011   0.00000   0.00012   1.95521
    D1       -2.08033   0.00001   0.00004   0.00011   0.00014  -2.08019
    D2        2.08639   0.00003   0.00036   0.00022   0.00058   2.08696
    D3       -2.10249   0.00000   0.00030  -0.00015   0.00015  -2.10233
    D4        2.09431  -0.00003  -0.00005  -0.00037  -0.00042   2.09389
         Item               Value     Threshold  Converged?
 Maximum Force            0.000144     0.000450     YES
 RMS     Force            0.000045     0.000300     YES
 Maximum Displacement     0.000452     0.001800     YES
 RMS     Displacement     0.000244     0.001200     YES
 Predicted change in Energy=-9.023370D-08
 Optimization completed.
    -- Stationary point found.
                           ----------------------------
                           !   Optimized Parameters   !
                           ! (Angstroms and Degrees)  !
 --------------------------                            --------------------------
 ! Name  Definition              Value          Derivative Info.                !
 --------------------------------------------------------------------------------
 ! R1    R(1,2)                  1.0675         -DE/DX =    0.0                 !
 ! R2    R(1,3)                  1.375          -DE/DX =    0.0                 !
 ! R3    R(1,4)                  1.8156         -DE/DX =    0.0001              !
 ! R4    R(1,5)                  1.9514         -DE/DX =    0.0                 !
 ! A1    A(2,1,3)              109.6138         -DE/DX =    0.0                 !
 ! A2    A(2,1,4)              108.7721         -DE/DX =    0.0                 !
 ! A3    A(2,1,5)              109.0611         -DE/DX =    0.0                 !
 ! A4    A(3,1,4)              108.5218         -DE/DX =    0.0                 !
 ! A5    A(3,1,5)              108.8285         -DE/DX =    0.0                 !
 ! A6    A(4,1,5)              112.0188         -DE/DX =    0.0                 !
 ! D1    D(2,1,4,3)           -119.1943         -DE/DX =    0.0                 !
 ! D2    D(2,1,5,3)            119.5411         -DE/DX =    0.0                 !
 ! D3    D(2,1,5,4)           -120.4636         -DE/DX =    0.0                 !
 ! D4    D(3,1,5,4)            119.9953         -DE/DX =    0.0                 !
 --------------------------------------------------------------------------------
 GradGradGradGradGradGradGradGradGradGradGradGradGradGradGradGradGradGrad

                          Input orientation:                          
 ---------------------------------------------------------------------
 Center     Atomic      Atomic             Coordinates (Angstroms)
 Number     Number       Type             X           Y           Z
 ---------------------------------------------------------------------
      1          6           0        0.715947    0.863157   -0.008304
      2          1           0       -0.351545    0.861433   -0.008162
      3          9           0        1.176621    1.509068    1.114762
      4         17           0        1.303009   -0.854473    0.032582
      5         35           0        1.351463    1.816093   -1.588115
 ---------------------------------------------------------------------
                    Distance matrix (angstroms):
                    1          2          3          4          5
     1  C    0.000000
     2  H    1.067493   0.000000
     3  F    1.375027   2.003916   0.000000
     4  Cl   1.815645   2.384018   2.602578   0.000000
     5  Br   1.951351   2.511547   2.725872   3.124248   0.000000
 Stoichiometry    CHBrClF
 Framework group  C1[X(CHBrClF)]
 Deg. of freedom     9
 Full point group                 C1      NOp   1
 Largest Abelian subgroup         C1      NOp   1
 Largest concise Abelian subgroup C1      NOp   1
                         Standard orientation:                         
 ---------------------------------------------------------------------
 Center     Atomic      Atomic             Coordinates (Angstroms)
 Number     Number       Type             X           Y           Z
 ---------------------------------------------------------------------
      1          6           0        0.558584    0.469420    0.432070
      2          1           0        0.613196    0.613464    1.488390
      3          9           0        0.764198    1.668605   -0.208535
      4         17           0        1.868240   -0.684049   -0.068809
      5         35           0       -1.217216   -0.194817   -0.029550
 ---------------------------------------------------------------------
 Rotational constants (GHZ):           6.2584993           1.9500823           1.5363666

 **********************************************************************

            Population analysis using the SCF Density.

 **********************************************************************

 Orbital symmetries:
       Occupied  (A) (A) (A) (A) (A) (A) (A) (A) (A) (A) (A) (A)
                 (A) (A) (A) (A) (A) (A) (A) (A) (A) (A) (A) (A)
                 (A) (A) (A) (A) (A) (A) (A) (A) (A) (A)
       Virtual   (A) (A) (A) (A) (A) (A) (A) (A) (A) (A) (A) (A)
                 (A) (A) (A) (A) (A) (A) (A) (A) (A) (A) (A)
 The electronic state is 1-A.
 Alpha  occ. eigenvalues -- -489.99272-104.85386 -64.42941 -58.59185 -58.58954
 Alpha  occ. eigenvalues --  -58.58952 -26.34289 -11.47197 -10.59528  -9.72605
 Alpha  occ. eigenvalues --   -8.06369  -8.05917  -8.05910  -7.49167  -7.48078
 Alpha  occ. eigenvalues --   -7.48066  -3.23272  -3.22849  -3.22835  -3.21590
 Alpha  occ. eigenvalues --   -3.21589  -1.66027  -1.18337  -1.06392  -0.91644
 Alpha  occ. eigenvalues --   -0.77002  -0.72729  -0.70655  -0.59359  -0.54591
 Alpha  occ. eigenvalues --   -0.49610  -0.47674  -0.44945  -0.44015
 Alpha virt. eigenvalues --    0.09008   0.16204   0.23266   0.26938   0.53798
 Alpha virt. eigenvalues --    0.59835   0.61781   0.63029   0.64823   0.68405
 Alpha virt. eigenvalues --    0.69272   0.74936   0.80615   0.83664   0.85639
 Alpha virt. eigenvalues --    1.12556   1.23977   1.58942   1.59442   1.60721
 Alpha virt. eigenvalues --    2.34503   7.18406  40.96690
          Condensed to atoms (all electrons):
               1          2          3          4          5
     1  C    5.414760   0.335346   0.061223   0.146870   0.196662
     2  H    0.335346   0.505005  -0.028910  -0.048160  -0.047211
     3  F    0.061223  -0.028910   9.408675  -0.034974  -0.038394
     4  Cl   0.146870  -0.048160  -0.034974  16.917244  -0.069074
     5  Br   0.196662  -0.047211  -0.038394  -0.069074  34.807561
 Mulliken charges:
               1
     1  C   -0.154861
     2  H    0.283930
     3  F   -0.367620
     4  Cl   0.088094
     5  Br   0.150456
 Sum of Mulliken charges =   0.00000
 Mulliken charges with hydrogens summed into heavy atoms:
               1
     1  C    0.129069
     3  F   -0.367620
     4  Cl   0.088094
     5  Br   0.150456
 Electronic spatial extent (au):  <R**2>=            662.3159
 Charge=              0.0000 electrons
 Dipole moment (field-independent basis, Debye):
    X=             -0.4448    Y=             -0.3426    Z=              1.9517  Tot=              2.0308
 Quadrupole moment (field-independent basis, Debye-Ang):
   XX=            -43.6940   YY=            -45.1961   ZZ=            -40.2859
   XY=              0.0829   XZ=              1.4934   YZ=              1.7643
 Traceless Quadrupole moment (field-independent basis, Debye-Ang):
   XX=             -0.6354   YY=             -2.1374   ZZ=              2.7728
   XY=              0.0829   XZ=              1.4934   YZ=              1.7643
 Octapole moment (field-independent basis, Debye-Ang**2):
  XXX=            -33.1498  YYY=             -2.2843  ZZZ=              1.1242  XYY=            -10.5872
  XXY=             -1.6548  XXZ=             -2.0144  XZZ=             -7.2627  YZZ=              2.7443
  YYZ=              0.4511  XYZ=              1.2813
 Hexadecapole moment (field-independent basis, Debye-Ang**3):
 XXXX=           -487.9865 YYYY=           -181.5606 ZZZZ=            -54.2269 XXXY=             12.5366
 XXXZ=              0.3437 YYYX=              6.0234 YYYZ=              0.6821 ZZZX=              2.0636
 ZZZY=              0.0330 XXYY=           -109.3112 XXZZ=            -93.3855 YYZZ=            -37.7839
 XXYZ=              2.7648 YYXZ=              0.2134 ZZXY=              5.1519
 N-N= 3.169980095813D+02 E-N=-8.196423309326D+03  KE= 3.160307936031D+03
 1|1|UNPC-WIN10-2T0259|FOpt|RHF|6-31G|C1H1Br1Cl1F1|SDDX|16-Apr-2026|0||
 # opt hf/6-31g geom=connectivity||Title Card Required||0,1|C,0.7159466
 491,0.8631574982,-0.0083043577|H,-0.3515453165,0.8614334636,-0.0081615
 835|F,1.1766211359,1.5090676803,1.1147615239|Cl,1.3030088307,-0.854472
 9176,0.0325816419|Br,1.3514633609,1.8160929054,-1.5881153945||Version=
 EM64W-G16RevB.01|State=1-A|HF=-3167.0290009|RMSD=6.067e-009|RMSF=7.032
 e-005|Dipole=-0.7327416,0.0088091,-0.3184387|Quadrupole=2.4508416,-0.9
 879215,-1.4629201,0.2434728,-1.2055243,-0.6182213|PG=C01 [X(C1H1Br1Cl1
 F1)]||@


 MICRO CREDO - NEVER TRUST A COMPUTER BIGGER
               BIGGER THAN YOU CAN LIFT.
 Job cpu time:       0 days  0 hours  0 minutes 14.0 seconds.
 Elapsed time:       0 days  0 hours  0 minutes  9.1 seconds.
 File lengths (MBytes):  RWF=      6 Int=      0 D2E=      0 Chk=      1 Scr=      1
 Normal termination of Gaussian 16 at Thu Apr 16 10:21:03 2026.
