 Entering Link 1 = C:\G16W\l1.exe PID=      1572.
  
 Copyright (c) 1988-2017, Gaussian, Inc.  All Rights Reserved.
  
 This is part of the Gaussian(R) 16 program.  It is based on
 the Gaussian(R) 09 system (copyright 2009, Gaussian, Inc.),
 the Gaussian(R) 03 system (copyright 2003, Gaussian, Inc.),
 the Gaussian(R) 98 system (copyright 1998, Gaussian, Inc.),
 the Gaussian(R) 94 system (copyright 1995, Gaussian, Inc.),
 the Gaussian 92(TM) system (copyright 1992, Gaussian, Inc.),
 the Gaussian 90(TM) system (copyright 1990, Gaussian, Inc.),
 the Gaussian 88(TM) system (copyright 1988, Gaussian, Inc.),
 the Gaussian 86(TM) system (copyright 1986, Carnegie Mellon
 University), and the Gaussian 82(TM) system (copyright 1983,
 Carnegie Mellon University). Gaussian is a federally registered
 trademark of Gaussian, Inc.
  
 This software contains proprietary and confidential information,
 including trade secrets, belonging to Gaussian, Inc.
  
 This software is provided under written license and may be
 used, copied, transmitted, or stored only in accord with that
 written license.
  
 The following legend is applicable only to US Government
 contracts under FAR:
  
                    RESTRICTED RIGHTS LEGEND
  
 Use, reproduction and disclosure by the US Government is
 subject to restrictions as set forth in subparagraphs (a)
 and (c) of the Commercial Computer Software - Restricted
 Rights clause in FAR 52.227-19.
  
 Gaussian, Inc.
 340 Quinnipiac St., Bldg. 40, Wallingford CT 06492
  
  
 ---------------------------------------------------------------
 Warning -- This program may not be used in any manner that
 competes with the business of Gaussian, Inc. or will provide
 assistance to any competitor of Gaussian, Inc.  The licensee
 of this program is prohibited from giving any competitor of
 Gaussian, Inc. access to this program.  By using this program,
 the user acknowledges that Gaussian, Inc. is engaged in the
 business of creating and licensing software in the field of
 computational chemistry and represents and warrants to the
 licensee that it is not a competitor of Gaussian, Inc. and that
 it will not use this program in any manner prohibited above.
 ---------------------------------------------------------------
  

 Cite this work as:
 Gaussian 16, Revision B.01,
 M. J. Frisch, G. W. Trucks, H. B. Schlegel, G. E. Scuseria, 
 M. A. Robb, J. R. Cheeseman, G. Scalmani, V. Barone, 
 G. A. Petersson, H. Nakatsuji, X. Li, M. Caricato, A. V. Marenich, 
 J. Bloino, B. G. Janesko, R. Gomperts, B. Mennucci, H. P. Hratchian, 
 J. V. Ortiz, A. F. Izmaylov, J. L. Sonnenberg, D. Williams-Young, 
 F. Ding, F. Lipparini, F. Egidi, J. Goings, B. Peng, A. Petrone, 
 T. Henderson, D. Ranasinghe, V. G. Zakrzewski, J. Gao, N. Rega, 
 G. Zheng, W. Liang, M. Hada, M. Ehara, K. Toyota, R. Fukuda, 
 J. Hasegawa, M. Ishida, T. Nakajima, Y. Honda, O. Kitao, H. Nakai, 
 T. Vreven, K. Throssell, J. A. Montgomery, Jr., J. E. Peralta, 
 F. Ogliaro, M. J. Bearpark, J. J. Heyd, E. N. Brothers, K. N. Kudin, 
 V. N. Staroverov, T. A. Keith, R. Kobayashi, J. Normand, 
 K. Raghavachari, A. P. Rendell, J. C. Burant, S. S. Iyengar, 
 J. Tomasi, M. Cossi, J. M. Millam, M. Klene, C. Adamo, R. Cammi, 
 J. W. Ochterski, R. L. Martin, K. Morokuma, O. Farkas, 
 J. B. Foresman, and D. J. Fox, Gaussian, Inc., Wallingford CT, 2016.
 
 ******************************************
 Gaussian 16:  EM64W-G16RevB.01 16-Dec-2017
                16-Apr-2026 
 ******************************************
 %chk=D:\APPs\lihaibei\molecules-use\COHF.chk
 --------------------------------
 # opt hf/6-31g geom=connectivity
 --------------------------------
 1/18=20,19=15,38=1,57=2/1,3;
 2/9=110,12=2,17=6,18=5,40=1/2;
 3/5=1,6=6,11=9,25=1,30=1,71=1/1,2,3;
 4//1;
 5/5=2,38=5/2;
 6/7=2,8=2,9=2,10=2,28=1/1;
 7//1,2,3,16;
 1/18=20,19=15/3(2);
 2/9=110/2;
 99//99;
 2/9=110/2;
 3/5=1,6=6,11=9,25=1,30=1,71=1/1,2,3;
 4/5=5,16=3,69=1/1;
 5/5=2,38=5/2;
 7//1,2,3,16;
 1/18=20,19=15/3(-5);
 2/9=110/2;
 6/7=2,8=2,9=2,10=2,19=2,28=1/1;
 99/9=1/99;
 -------------------
 Title Card Required
 -------------------
 Symbolic Z-matrix:
 Charge =  0 Multiplicity = 1
 C                     0.10867   0.39079   0. 
 O                     1.15025  -0.25838   0. 
 H                     0.10301   1.50123   0. 
 F                    -1.10633  -0.19766   0. 
 

 GradGradGradGradGradGradGradGradGradGradGradGradGradGradGradGradGradGrad
 Berny optimization.
 Initialization pass.
                           ----------------------------
                           !    Initial Parameters    !
                           ! (Angstroms and Degrees)  !
 --------------------------                            --------------------------
 ! Name  Definition              Value          Derivative Info.                !
 --------------------------------------------------------------------------------
 ! R1    R(1,2)                  1.2273         estimate D2E/DX2                !
 ! R2    R(1,3)                  1.1105         estimate D2E/DX2                !
 ! R3    R(1,4)                  1.35           estimate D2E/DX2                !
 ! A1    A(2,1,3)              122.2249         estimate D2E/DX2                !
 ! A2    A(2,1,4)              122.2249         estimate D2E/DX2                !
 ! A3    A(3,1,4)              115.5502         estimate D2E/DX2                !
 ! D1    D(2,1,4,3)            180.0            estimate D2E/DX2                !
 --------------------------------------------------------------------------------
 Trust Radius=3.00D-01 FncErr=1.00D-07 GrdErr=1.00D-07 EigMax=2.50D+02 EigMin=1.00D-04
 Number of steps in this run=     20 maximum allowed number of steps=    100.
 GradGradGradGradGradGradGradGradGradGradGradGradGradGradGradGradGradGrad

                          Input orientation:                          
 ---------------------------------------------------------------------
 Center     Atomic      Atomic             Coordinates (Angstroms)
 Number     Number       Type             X           Y           Z
 ---------------------------------------------------------------------
      1          6           0        0.108667    0.390789    0.000000
      2          8           0        1.150249   -0.258375    0.000000
      3          1           0        0.103012    1.501232    0.000000
      4          9           0       -1.106333   -0.197663    0.000000
 ---------------------------------------------------------------------
                    Distance matrix (angstroms):
                    1          2          3          4
     1  C    0.000000
     2  O    1.227317   0.000000
     3  H    1.110457   2.047663   0.000000
     4  F    1.350000   2.257399   2.085368   0.000000
 Stoichiometry    CHFO
 Framework group  CS[SG(CHFO)]
 Deg. of freedom     5
 Full point group                 CS      NOp   2
 Largest Abelian subgroup         CS      NOp   2
 Largest concise Abelian subgroup C1      NOp   1
                         Standard orientation:                         
 ---------------------------------------------------------------------
 Center     Atomic      Atomic             Coordinates (Angstroms)
 Number     Number       Type             X           Y           Z
 ---------------------------------------------------------------------
      1          6           0        0.000000    0.405616    0.000000
      2          8           0        1.177422    0.059227    0.000000
      3          1           0       -0.302941    1.473952    0.000000
      4          9           0       -1.012937   -0.486829    0.000000
 ---------------------------------------------------------------------
 Rotational constants (GHZ):          86.3189772          11.3472080          10.0288487
 Standard basis: 6-31G (6D, 7F)
 There are    23 symmetry adapted cartesian basis functions of A'  symmetry.
 There are     6 symmetry adapted cartesian basis functions of A"  symmetry.
 There are    23 symmetry adapted basis functions of A'  symmetry.
 There are     6 symmetry adapted basis functions of A"  symmetry.
    29 basis functions,    70 primitive gaussians,    29 cartesian basis functions
    12 alpha electrons       12 beta electrons
       nuclear repulsion energy        65.9517156212 Hartrees.
 NAtoms=    4 NActive=    4 NUniq=    4 SFac= 1.00D+00 NAtFMM=   60 NAOKFM=F Big=F
 Integral buffers will be    131072 words long.
 Raffenetti 1 integral format.
 Two-electron integral symmetry is turned on.
 One-electron integrals computed using PRISM.
 NBasis=    29 RedAO= T EigKep=  2.15D-02  NBF=    23     6
 NBsUse=    29 1.00D-06 EigRej= -1.00D+00 NBFU=    23     6
 ExpMin= 1.61D-01 ExpMax= 7.00D+03 ExpMxC= 1.05D+03 IAcc=3 IRadAn=         5 AccDes= 0.00D+00
 Harris functional with IExCor=  205 and IRadAn=       5 diagonalized for initial guess.
 HarFok:  IExCor=  205 AccDes= 0.00D+00 IRadAn=         5 IDoV= 1 UseB2=F ITyADJ=14
 ICtDFT=  3500011 ScaDFX=  1.000000  1.000000  1.000000  1.000000
 FoFCou: FMM=F IPFlag=           0 FMFlag=      100000 FMFlg1=           0
         NFxFlg=           0 DoJE=T BraDBF=F KetDBF=T FulRan=T
         wScrn=  0.000000 ICntrl=       500 IOpCl=  0 I1Cent=   200000004 NGrid=           0
         NMat0=    1 NMatS0=      1 NMatT0=    0 NMatD0=    1 NMtDS0=    0 NMtDT0=    0
 Petite list used in FoFCou.
 Initial guess orbital symmetries:
       Occupied  (A') (A') (A') (A') (A') (A') (A') (A') (A") (A')
                 (A") (A')
       Virtual   (A") (A') (A') (A') (A") (A') (A') (A') (A') (A')
                 (A") (A') (A") (A') (A') (A') (A')
 The electronic state of the initial guess is 1-A'.
 Keep R1 ints in memory in symmetry-blocked form, NReq=906485.
 Requested convergence on RMS density matrix=1.00D-08 within 128 cycles.
 Requested convergence on MAX density matrix=1.00D-06.
 Requested convergence on             energy=1.00D-06.
 No special actions if energy rises.
 SCF Done:  E(RHF) =  -212.648738589     A.U. after   12 cycles
            NFock= 12  Conv=0.67D-08     -V/T= 2.0012

 **********************************************************************

            Population analysis using the SCF Density.

 **********************************************************************

 Orbital symmetries:
       Occupied  (A') (A') (A') (A') (A') (A') (A') (A") (A') (A')
                 (A") (A')
       Virtual   (A") (A') (A') (A') (A") (A') (A') (A') (A') (A')
                 (A") (A') (A") (A') (A') (A') (A')
 The electronic state is 1-A'.
 Alpha  occ. eigenvalues --  -26.35738 -20.62851 -11.47082  -1.68058  -1.44846
 Alpha  occ. eigenvalues --   -0.91409  -0.79583  -0.73262  -0.72450  -0.63431
 Alpha  occ. eigenvalues --   -0.54252  -0.51162
 Alpha virt. eigenvalues --    0.10974   0.22363   0.34486   0.40319   0.68607
 Alpha virt. eigenvalues --    0.72656   0.86507   0.89991   1.06175   1.20138
 Alpha virt. eigenvalues --    1.24216   1.32029   1.53589   1.58823   1.66111
 Alpha virt. eigenvalues --    1.93856   2.31760
          Condensed to atoms (all electrons):
               1          2          3          4
     1  C    4.408872   0.453953   0.366936   0.147216
     2  O    0.453953   8.126236  -0.060231  -0.057965
     3  H    0.366936  -0.060231   0.525129  -0.050853
     4  F    0.147216  -0.057965  -0.050853   9.341652
 Mulliken charges:
               1
     1  C    0.623023
     2  O   -0.461993
     3  H    0.219019
     4  F   -0.380049
 Sum of Mulliken charges =   0.00000
 Mulliken charges with hydrogens summed into heavy atoms:
               1
     1  C    0.842042
     2  O   -0.461993
     4  F   -0.380049
 Electronic spatial extent (au):  <R**2>=            129.5778
 Charge=              0.0000 electrons
 Dipole moment (field-independent basis, Debye):
    X=             -1.5514    Y=              2.4230    Z=              0.0000  Tot=              2.8771
 Quadrupole moment (field-independent basis, Debye-Ang):
   XX=            -20.9647   YY=            -14.4299   ZZ=            -15.2695
   XY=             -1.2427   XZ=              0.0000   YZ=              0.0000
 Traceless Quadrupole moment (field-independent basis, Debye-Ang):
   XX=             -4.0767   YY=              2.4581   ZZ=              1.6186
   XY=             -1.2427   XZ=              0.0000   YZ=              0.0000
 Octapole moment (field-independent basis, Debye-Ang**2):
  XXX=             -7.2003  YYY=              0.4127  ZZZ=              0.0000  XYY=             -1.8467
  XXY=             -0.2992  XXZ=              0.0000  XZZ=             -1.3962  YZZ=             -0.8793
  YYZ=              0.0000  XYZ=              0.0000
 Hexadecapole moment (field-independent basis, Debye-Ang**3):
 XXXX=            -94.8375 YYYY=            -27.1575 ZZZZ=            -10.9846 XXXY=             -8.7149
 XXXZ=              0.0000 YYYX=             -8.2120 YYYZ=              0.0000 ZZZX=              0.0000
 ZZZY=              0.0000 XXYY=            -20.4316 XXZZ=            -16.3749 YYZZ=             -7.2693
 XXYZ=              0.0000 YYXZ=              0.0000 ZZXY=             -2.4692
 N-N= 6.595171562118D+01 E-N=-6.367068131997D+02  KE= 2.123884096876D+02
 Symmetry A'   KE= 2.025650525823D+02
 Symmetry A"   KE= 9.823357105267D+00
 Calling FoFJK, ICntrl=      2127 FMM=F ISym2X=1 I1Cent= 0 IOpClX= 0 NMat=1 NMatS=1 NMatT=0.
 ***** Axes restored to original set *****
 -------------------------------------------------------------------
 Center     Atomic                   Forces (Hartrees/Bohr)
 Number     Number              X              Y              Z
 -------------------------------------------------------------------
      1        6           0.073929113   -0.010449431    0.000000000
      2        8          -0.063658440    0.032663048    0.000000000
      3        1          -0.011539431   -0.027491326    0.000000000
      4        9           0.001268759    0.005277709    0.000000000
 -------------------------------------------------------------------
 Cartesian Forces:  Max     0.073929113 RMS     0.031107839

 GradGradGradGradGradGradGradGradGradGradGradGradGradGradGradGradGradGrad
 Berny optimization.
 FormGI is forming the generalized inverse of G from B-inverse, IUseBI=4.
 Internal  Forces:  Max     0.071301190 RMS     0.029641104
 Search for a local minimum.
 Step number   1 out of a maximum of   20
 All quantities printed in internal units (Hartrees-Bohrs-Radians)
 Mixed Optimization -- RFO/linear search
 Second derivative matrix not updated -- first step.
 The second derivative matrix:
                          R1        R2        R3        A1        A2
           R1           0.92213
           R2           0.00000   0.32552
           R3           0.00000   0.00000   0.55021
           A1           0.00000   0.00000   0.00000   0.16000
           A2           0.00000   0.00000   0.00000   0.00000   0.25000
           A3           0.00000   0.00000   0.00000   0.00000   0.00000
           D1           0.00000   0.00000   0.00000   0.00000   0.00000
                          A3        D1
           A3           0.16000
           D1           0.00000   0.02089
 ITU=  0
     Eigenvalues ---    0.02089   0.16000   0.22000   0.32552   0.55021
     Eigenvalues ---    0.92213
 RFO step:  Lambda=-9.50309124D-03 EMin= 2.08853425D-02
 Linear search not attempted -- first point.
 Iteration  1 RMS(Cart)=  0.04947071 RMS(Int)=  0.00175778
 Iteration  2 RMS(Cart)=  0.00174067 RMS(Int)=  0.00000173
 Iteration  3 RMS(Cart)=  0.00000155 RMS(Int)=  0.00000000
 Iteration  4 RMS(Cart)=  0.00000000 RMS(Int)=  0.00000000
 ClnCor:  largest displacement from symmetrization is 4.48D-10 for atom     1.
 Variable       Old X    -DE/DX   Delta X   Delta X   Delta X     New X
                                 (Linear)    (Quad)   (Total)
    R1        2.31929  -0.07130   0.00000  -0.07653  -0.07653   2.24276
    R2        2.09846  -0.02743   0.00000  -0.08188  -0.08188   2.01658
    R3        2.55113  -0.00344   0.00000  -0.00615  -0.00615   2.54498
    A1        2.13323   0.01277   0.00000   0.07454   0.07454   2.20777
    A2        2.13323  -0.00103   0.00000  -0.00449  -0.00449   2.12873
    A3        2.01673  -0.01174   0.00000  -0.07005  -0.07005   1.94668
    D1        3.14159   0.00000   0.00000   0.00000   0.00000   3.14159
         Item               Value     Threshold  Converged?
 Maximum Force            0.071301     0.000450     NO 
 RMS     Force            0.029641     0.000300     NO 
 Maximum Displacement     0.074368     0.001800     NO 
 RMS     Displacement     0.049623     0.001200     NO 
 Predicted change in Energy=-4.861229D-03
 GradGradGradGradGradGradGradGradGradGradGradGradGradGradGradGradGradGrad

                          Input orientation:                          
 ---------------------------------------------------------------------
 Center     Atomic      Atomic             Coordinates (Angstroms)
 Number     Number       Type             X           Y           Z
 ---------------------------------------------------------------------
      1          6           0        0.136524    0.396510    0.000000
      2          8           0        1.129543   -0.253451    0.000000
      3          1           0        0.075283    1.461878    0.000000
      4          9           0       -1.085758   -0.168954    0.000000
 ---------------------------------------------------------------------
                    Distance matrix (angstroms):
                    1          2          3          4
     1  C    0.000000
     2  O    1.186817   0.000000
     3  H    1.067127   2.013410   0.000000
     4  F    1.346745   2.216912   2.001907   0.000000
 Stoichiometry    CHFO
 Framework group  CS[SG(CHFO)]
 Deg. of freedom     5
 Full point group                 CS      NOp   2
 Largest Abelian subgroup         CS      NOp   2
 Largest concise Abelian subgroup C1      NOp   1
                         Standard orientation:                         
 ---------------------------------------------------------------------
 Center     Atomic      Atomic             Coordinates (Angstroms)
 Number     Number       Type             X           Y           Z
 ---------------------------------------------------------------------
      1          6           0        0.000000    0.405673    0.000000
      2          8           0        1.148858    0.107911    0.000000
      3          1           0       -0.399160    1.395335    0.000000
      4          9           0       -0.976856   -0.521407    0.000000
 ---------------------------------------------------------------------
 Rotational constants (GHZ):          90.4928952          11.7470457          10.3973473
 Standard basis: 6-31G (6D, 7F)
 There are    23 symmetry adapted cartesian basis functions of A'  symmetry.
 There are     6 symmetry adapted cartesian basis functions of A"  symmetry.
 There are    23 symmetry adapted basis functions of A'  symmetry.
 There are     6 symmetry adapted basis functions of A"  symmetry.
    29 basis functions,    70 primitive gaussians,    29 cartesian basis functions
    12 alpha electrons       12 beta electrons
       nuclear repulsion energy        67.2638331072 Hartrees.
 NAtoms=    4 NActive=    4 NUniq=    4 SFac= 1.00D+00 NAtFMM=   60 NAOKFM=F Big=F
 Integral buffers will be    131072 words long.
 Raffenetti 1 integral format.
 Two-electron integral symmetry is turned on.
 One-electron integrals computed using PRISM.
 NBasis=    29 RedAO= T EigKep=  1.95D-02  NBF=    23     6
 NBsUse=    29 1.00D-06 EigRej= -1.00D+00 NBFU=    23     6
 Initial guess from the checkpoint file:  "D:\APPs\lihaibei\molecules-use\COHF.chk"
 B after Tr=     0.000000    0.000000    0.000000
         Rot=    0.999758    0.000000    0.000000   -0.022005 Ang=  -2.52 deg.
 Initial guess orbital symmetries:
       Occupied  (A') (A') (A') (A') (A') (A') (A') (A") (A') (A')
                 (A") (A')
       Virtual   (A") (A') (A') (A') (A") (A') (A') (A') (A') (A')
                 (A") (A') (A") (A') (A') (A') (A')
 ExpMin= 1.61D-01 ExpMax= 7.00D+03 ExpMxC= 1.05D+03 IAcc=3 IRadAn=         5 AccDes= 0.00D+00
 Harris functional with IExCor=  205 and IRadAn=       5 diagonalized for initial guess.
 HarFok:  IExCor=  205 AccDes= 0.00D+00 IRadAn=         5 IDoV= 1 UseB2=F ITyADJ=14
 ICtDFT=  3500011 ScaDFX=  1.000000  1.000000  1.000000  1.000000
 FoFCou: FMM=F IPFlag=           0 FMFlag=      100000 FMFlg1=           0
         NFxFlg=           0 DoJE=T BraDBF=F KetDBF=T FulRan=T
         wScrn=  0.000000 ICntrl=       500 IOpCl=  0 I1Cent=   200000004 NGrid=           0
         NMat0=    1 NMatS0=      1 NMatT0=    0 NMatD0=    1 NMtDS0=    0 NMtDT0=    0
 Petite list used in FoFCou.
 Keep R1 ints in memory in symmetry-blocked form, NReq=906514.
 Requested convergence on RMS density matrix=1.00D-08 within 128 cycles.
 Requested convergence on MAX density matrix=1.00D-06.
 Requested convergence on             energy=1.00D-06.
 No special actions if energy rises.
 SCF Done:  E(RHF) =  -212.653856154     A.U. after   12 cycles
            NFock= 12  Conv=0.11D-08     -V/T= 2.0000
 Calling FoFJK, ICntrl=      2127 FMM=F ISym2X=1 I1Cent= 0 IOpClX= 0 NMat=1 NMatS=1 NMatT=0.
 ***** Axes restored to original set *****
 -------------------------------------------------------------------
 Center     Atomic                   Forces (Hartrees/Bohr)
 Number     Number              X              Y              Z
 -------------------------------------------------------------------
      1        6           0.017647515   -0.002940749    0.000000000
      2        8          -0.004255213    0.002273765    0.000000000
      3        1          -0.002840681    0.003671934    0.000000000
      4        9          -0.010551621   -0.003004950    0.000000000
 -------------------------------------------------------------------
 Cartesian Forces:  Max     0.017647515 RMS     0.006359236

 GradGradGradGradGradGradGradGradGradGradGradGradGradGradGradGradGradGrad
 Berny optimization.
 Using GEDIIS/GDIIS optimizer.
 FormGI is forming the generalized inverse of G from B-inverse, IUseBI=4.
 Internal  Forces:  Max     0.010838164 RMS     0.004944431
 Search for a local minimum.
 Step number   2 out of a maximum of   20
 All quantities printed in internal units (Hartrees-Bohrs-Radians)
 Mixed Optimization -- RFO/linear search
 Update second derivatives using D2CorX and points    1    2
 DE= -5.12D-03 DEPred=-4.86D-03 R= 1.05D+00
 TightC=F SS=  1.41D+00  RLast= 1.52D-01 DXNew= 5.0454D-01 4.5580D-01
 Trust test= 1.05D+00 RLast= 1.52D-01 DXMaxT set to 4.56D-01
 The second derivative matrix:
                          R1        R2        R3        A1        A2
           R1           0.86939
           R2           0.02480   0.35591
           R3           0.07817   0.03913   0.57129
           A1           0.01293  -0.00230  -0.01235   0.15717
           A2           0.00715   0.00415   0.00296  -0.00108   0.25037
           A3          -0.02315  -0.00301   0.00924   0.00443   0.00066
           D1           0.00000   0.00000   0.00000   0.00000   0.00000
                          A3        D1
           A3           0.15443
           D1           0.00000   0.02089
 ITU=  1  0
 Use linear search instead of GDIIS.
     Eigenvalues ---    0.02089   0.14961   0.22031   0.34898   0.55815
     Eigenvalues ---    0.89152
 RFO step:  Lambda=-3.88103144D-04 EMin= 2.08853425D-02
 Quartic linear search produced a step of  0.03518.
 Iteration  1 RMS(Cart)=  0.00952715 RMS(Int)=  0.00009789
 Iteration  2 RMS(Cart)=  0.00010834 RMS(Int)=  0.00000000
 Iteration  3 RMS(Cart)=  0.00000000 RMS(Int)=  0.00000000
 ClnCor:  largest displacement from symmetrization is 5.98D-12 for atom     1.
 Variable       Old X    -DE/DX   Delta X   Delta X   Delta X     New X
                                 (Linear)    (Quad)   (Total)
    R1        2.24276  -0.00481  -0.00269  -0.00562  -0.00831   2.23445
    R2        2.01658   0.00383  -0.00288   0.01226   0.00938   2.02596
    R3        2.54498   0.01084  -0.00022   0.02037   0.02015   2.56513
    A1        2.20777   0.00208   0.00262   0.01386   0.01648   2.22425
    A2        2.12873   0.00112  -0.00016   0.00530   0.00514   2.13388
    A3        1.94668  -0.00321  -0.00246  -0.01916  -0.02162   1.92506
    D1        3.14159   0.00000   0.00000   0.00000   0.00000   3.14159
         Item               Value     Threshold  Converged?
 Maximum Force            0.010838     0.000450     NO 
 RMS     Force            0.004944     0.000300     NO 
 Maximum Displacement     0.016324     0.001800     NO 
 RMS     Displacement     0.009550     0.001200     NO 
 Predicted change in Energy=-2.043361D-04
 GradGradGradGradGradGradGradGradGradGradGradGradGradGradGradGradGradGrad

                          Input orientation:                          
 ---------------------------------------------------------------------
 Center     Atomic      Atomic             Coordinates (Angstroms)
 Number     Number       Type             X           Y           Z
 ---------------------------------------------------------------------
      1          6           0        0.145163    0.394280    0.000000
      2          8           0        1.132813   -0.255846    0.000000
      3          1           0        0.068793    1.463649    0.000000
      4          9           0       -1.091176   -0.166099    0.000000
 ---------------------------------------------------------------------
                    Distance matrix (angstroms):
                    1          2          3          4
     1  C    0.000000
     2  O    1.182420   0.000000
     3  H    1.072093   2.022078   0.000000
     4  F    1.357409   2.225799   2.000401   0.000000
 Stoichiometry    CHFO
 Framework group  CS[SG(CHFO)]
 Deg. of freedom     5
 Full point group                 CS      NOp   2
 Largest Abelian subgroup         CS      NOp   2
 Largest concise Abelian subgroup C1      NOp   1
                         Standard orientation:                         
 ---------------------------------------------------------------------
 Center     Atomic      Atomic             Coordinates (Angstroms)
 Number     Number       Type             X           Y           Z
 ---------------------------------------------------------------------
      1          6           0        0.000000    0.406300    0.000000
      2          8           0        1.149457    0.129053    0.000000
      3          1           0       -0.433996    1.386622    0.000000
      4          9           0       -0.973517   -0.539650    0.000000
 ---------------------------------------------------------------------
 Rotational constants (GHZ):          90.7592660          11.6458982          10.3214831
 Standard basis: 6-31G (6D, 7F)
 There are    23 symmetry adapted cartesian basis functions of A'  symmetry.
 There are     6 symmetry adapted cartesian basis functions of A"  symmetry.
 There are    23 symmetry adapted basis functions of A'  symmetry.
 There are     6 symmetry adapted basis functions of A"  symmetry.
    29 basis functions,    70 primitive gaussians,    29 cartesian basis functions
    12 alpha electrons       12 beta electrons
       nuclear repulsion energy        67.0871260973 Hartrees.
 NAtoms=    4 NActive=    4 NUniq=    4 SFac= 1.00D+00 NAtFMM=   60 NAOKFM=F Big=F
 Integral buffers will be    131072 words long.
 Raffenetti 1 integral format.
 Two-electron integral symmetry is turned on.
 One-electron integrals computed using PRISM.
 NBasis=    29 RedAO= T EigKep=  1.93D-02  NBF=    23     6
 NBsUse=    29 1.00D-06 EigRej= -1.00D+00 NBFU=    23     6
 Initial guess from the checkpoint file:  "D:\APPs\lihaibei\molecules-use\COHF.chk"
 B after Tr=     0.000000    0.000000    0.000000
         Rot=    0.999964    0.000000    0.000000   -0.008484 Ang=  -0.97 deg.
 Initial guess orbital symmetries:
       Occupied  (A') (A') (A') (A') (A') (A') (A') (A") (A') (A')
                 (A") (A')
       Virtual   (A") (A') (A') (A') (A") (A') (A') (A') (A') (A')
                 (A") (A') (A") (A') (A') (A') (A')
 Keep R1 ints in memory in symmetry-blocked form, NReq=906514.
 Requested convergence on RMS density matrix=1.00D-08 within 128 cycles.
 Requested convergence on MAX density matrix=1.00D-06.
 Requested convergence on             energy=1.00D-06.
 No special actions if energy rises.
 SCF Done:  E(RHF) =  -212.654096503     A.U. after   11 cycles
            NFock= 11  Conv=0.31D-08     -V/T= 2.0001
 Calling FoFJK, ICntrl=      2127 FMM=F ISym2X=1 I1Cent= 0 IOpClX= 0 NMat=1 NMatS=1 NMatT=0.
 ***** Axes restored to original set *****
 -------------------------------------------------------------------
 Center     Atomic                   Forces (Hartrees/Bohr)
 Number     Number              X              Y              Z
 -------------------------------------------------------------------
      1        6           0.003445819    0.002776122    0.000000000
      2        8           0.000214046   -0.000993182    0.000000000
      3        1          -0.000446978   -0.000034578    0.000000000
      4        9          -0.003212887   -0.001748363    0.000000000
 -------------------------------------------------------------------
 Cartesian Forces:  Max     0.003445819 RMS     0.001688025

 GradGradGradGradGradGradGradGradGradGradGradGradGradGradGradGradGradGrad
 Berny optimization.
 Using GEDIIS/GDIIS optimizer.
 FormGI is forming the generalized inverse of G from B-inverse, IUseBI=4.
 Internal  Forces:  Max     0.003648100 RMS     0.001469097
 Search for a local minimum.
 Step number   3 out of a maximum of   20
 All quantities printed in internal units (Hartrees-Bohrs-Radians)
 Mixed Optimization -- RFO/linear search
 Update second derivatives using D2CorX and points    1    2    3
 DE= -2.40D-04 DEPred=-2.04D-04 R= 1.18D+00
 TightC=F SS=  1.41D+00  RLast= 3.65D-02 DXNew= 7.6655D-01 1.0935D-01
 Trust test= 1.18D+00 RLast= 3.65D-02 DXMaxT set to 4.56D-01
 The second derivative matrix:
                          R1        R2        R3        A1        A2
           R1           0.93128
           R2           0.00838   0.35764
           R3           0.09722   0.02028   0.44360
           A1           0.01769  -0.00647  -0.04236   0.15002
           A2          -0.01447   0.01048   0.00793   0.00017   0.25661
           A3           0.00212  -0.00875   0.02191   0.00739  -0.00837
           D1           0.00000   0.00000   0.00000   0.00000   0.00000
                          A3        D1
           A3           0.16440
           D1           0.00000   0.02089
 ITU=  1  1  0
 Use linear search instead of GDIIS.
     Eigenvalues ---    0.02089   0.14046   0.22970   0.35449   0.43852
     Eigenvalues ---    0.95058
 RFO step:  Lambda=-2.37025697D-05 EMin= 2.08853425D-02
 Quartic linear search produced a step of  0.24865.
 Iteration  1 RMS(Cart)=  0.00318300 RMS(Int)=  0.00000792
 Iteration  2 RMS(Cart)=  0.00000763 RMS(Int)=  0.00000000
 Iteration  3 RMS(Cart)=  0.00000000 RMS(Int)=  0.00000000
 ClnCor:  largest displacement from symmetrization is 1.41D-12 for atom     1.
 Variable       Old X    -DE/DX   Delta X   Delta X   Delta X     New X
                                 (Linear)    (Quad)   (Total)
    R1        2.23445   0.00072  -0.00207   0.00166  -0.00040   2.23405
    R2        2.02596   0.00000   0.00233  -0.00266  -0.00032   2.02564
    R3        2.56513   0.00365   0.00501   0.00433   0.00934   2.57447
    A1        2.22425   0.00083   0.00410   0.00334   0.00744   2.23169
    A2        2.13388  -0.00076   0.00128  -0.00527  -0.00399   2.12989
    A3        1.92506  -0.00008  -0.00538   0.00192  -0.00345   1.92161
    D1        3.14159   0.00000   0.00000   0.00000   0.00000   3.14159
         Item               Value     Threshold  Converged?
 Maximum Force            0.003648     0.000450     NO 
 RMS     Force            0.001469     0.000300     NO 
 Maximum Displacement     0.005150     0.001800     NO 
 RMS     Displacement     0.003180     0.001200     NO 
 Predicted change in Energy=-2.138187D-05
 GradGradGradGradGradGradGradGradGradGradGradGradGradGradGradGradGradGrad

                          Input orientation:                          
 ---------------------------------------------------------------------
 Center     Atomic      Atomic             Coordinates (Angstroms)
 Number     Number       Type             X           Y           Z
 ---------------------------------------------------------------------
      1          6           0        0.147888    0.395888    0.000000
      2          8           0        1.133020   -0.257663    0.000000
      3          1           0        0.067415    1.464784    0.000000
      4          9           0       -1.092730   -0.167026    0.000000
 ---------------------------------------------------------------------
                    Distance matrix (angstroms):
                    1          2          3          4
     1  C    0.000000
     2  O    1.182207   0.000000
     3  H    1.071921   2.025423   0.000000
     4  F    1.362353   2.227594   2.002184   0.000000
 Stoichiometry    CHFO
 Framework group  CS[SG(CHFO)]
 Deg. of freedom     5
 Full point group                 CS      NOp   2
 Largest Abelian subgroup         CS      NOp   2
 Largest concise Abelian subgroup C1      NOp   1
                         Standard orientation:                         
 ---------------------------------------------------------------------
 Center     Atomic      Atomic             Coordinates (Angstroms)
 Number     Number       Type             X           Y           Z
 ---------------------------------------------------------------------
      1          6           0        0.000000    0.409177    0.000000
      2          8           0        1.149436    0.132754    0.000000
      3          1           0       -0.441866    1.385788    0.000000
      4          9           0       -0.972625   -0.544765    0.000000
 ---------------------------------------------------------------------
 Rotational constants (GHZ):          90.1388017          11.6240872          10.2963006
 Standard basis: 6-31G (6D, 7F)
 There are    23 symmetry adapted cartesian basis functions of A'  symmetry.
 There are     6 symmetry adapted cartesian basis functions of A"  symmetry.
 There are    23 symmetry adapted basis functions of A'  symmetry.
 There are     6 symmetry adapted basis functions of A"  symmetry.
    29 basis functions,    70 primitive gaussians,    29 cartesian basis functions
    12 alpha electrons       12 beta electrons
       nuclear repulsion energy        66.9957004880 Hartrees.
 NAtoms=    4 NActive=    4 NUniq=    4 SFac= 1.00D+00 NAtFMM=   60 NAOKFM=F Big=F
 Integral buffers will be    131072 words long.
 Raffenetti 1 integral format.
 Two-electron integral symmetry is turned on.
 One-electron integrals computed using PRISM.
 NBasis=    29 RedAO= T EigKep=  1.93D-02  NBF=    23     6
 NBsUse=    29 1.00D-06 EigRej= -1.00D+00 NBFU=    23     6
 Initial guess from the checkpoint file:  "D:\APPs\lihaibei\molecules-use\COHF.chk"
 B after Tr=     0.000000    0.000000    0.000000
         Rot=    0.999998    0.000000    0.000000   -0.001891 Ang=  -0.22 deg.
 Initial guess orbital symmetries:
       Occupied  (A') (A') (A') (A') (A') (A') (A') (A") (A') (A')
                 (A") (A')
       Virtual   (A") (A') (A') (A') (A") (A') (A') (A') (A') (A')
                 (A") (A') (A") (A') (A') (A') (A')
 Keep R1 ints in memory in symmetry-blocked form, NReq=906514.
 Requested convergence on RMS density matrix=1.00D-08 within 128 cycles.
 Requested convergence on MAX density matrix=1.00D-06.
 Requested convergence on             energy=1.00D-06.
 No special actions if energy rises.
 SCF Done:  E(RHF) =  -212.654118642     A.U. after   10 cycles
            NFock= 10  Conv=0.35D-08     -V/T= 2.0002
 Calling FoFJK, ICntrl=      2127 FMM=F ISym2X=1 I1Cent= 0 IOpClX= 0 NMat=1 NMatS=1 NMatT=0.
 ***** Axes restored to original set *****
 -------------------------------------------------------------------
 Center     Atomic                   Forces (Hartrees/Bohr)
 Number     Number              X              Y              Z
 -------------------------------------------------------------------
      1        6          -0.000017186    0.000121537    0.000000000
      2        8           0.000220696   -0.000023972    0.000000000
      3        1           0.000070044   -0.000011037    0.000000000
      4        9          -0.000273554   -0.000086529    0.000000000
 -------------------------------------------------------------------
 Cartesian Forces:  Max     0.000273554 RMS     0.000112433

 GradGradGradGradGradGradGradGradGradGradGradGradGradGradGradGradGradGrad
 Berny optimization.
 Using GEDIIS/GDIIS optimizer.
 FormGI is forming the generalized inverse of G from B-inverse, IUseBI=4.
 Internal  Forces:  Max     0.000284863 RMS     0.000144769
 Search for a local minimum.
 Step number   4 out of a maximum of   20
 All quantities printed in internal units (Hartrees-Bohrs-Radians)
 Mixed Optimization -- En-DIIS/RFO-DIIS
 Update second derivatives using D2CorX and points    1    2    3    4
 DE= -2.21D-05 DEPred=-2.14D-05 R= 1.04D+00
 TightC=F SS=  1.41D+00  RLast= 1.31D-02 DXNew= 7.6655D-01 3.9203D-02
 Trust test= 1.04D+00 RLast= 1.31D-02 DXMaxT set to 4.56D-01
 The second derivative matrix:
                          R1        R2        R3        A1        A2
           R1           0.89644
           R2           0.00783   0.36825
           R3           0.07818   0.02240   0.40405
           A1           0.01359  -0.00777  -0.02481   0.16213
           A2          -0.00611   0.01493   0.01667  -0.00431   0.25633
           A3          -0.01007  -0.01279   0.03531   0.00967  -0.01111
           D1           0.00000   0.00000   0.00000   0.00000   0.00000
                          A3        D1
           A3           0.15843
           D1           0.00000   0.02089
 ITU=  1  1  1  0
 Use linear search instead of GDIIS.
     Eigenvalues ---    0.02089   0.14212   0.23448   0.36021   0.41141
     Eigenvalues ---    0.90895
 RFO step:  Lambda=-2.96306982D-07 EMin= 2.08853425D-02
 Quartic linear search produced a step of  0.02881.
 Iteration  1 RMS(Cart)=  0.00041487 RMS(Int)=  0.00000006
 Iteration  2 RMS(Cart)=  0.00000005 RMS(Int)=  0.00000000
 ClnCor:  largest displacement from symmetrization is 2.21D-14 for atom     1.
 Variable       Old X    -DE/DX   Delta X   Delta X   Delta X     New X
                                 (Linear)    (Quad)   (Total)
    R1        2.23405   0.00020  -0.00001   0.00019   0.00018   2.23423
    R2        2.02564  -0.00002  -0.00001  -0.00010  -0.00011   2.02553
    R3        2.57447   0.00028   0.00027   0.00034   0.00061   2.57509
    A1        2.23169  -0.00012   0.00021  -0.00079  -0.00058   2.23111
    A2        2.12989   0.00011  -0.00011   0.00055   0.00044   2.13033
    A3        1.92161   0.00002  -0.00010   0.00024   0.00014   1.92175
    D1        3.14159   0.00000   0.00000   0.00000   0.00000   3.14159
         Item               Value     Threshold  Converged?
 Maximum Force            0.000285     0.000450     YES
 RMS     Force            0.000145     0.000300     YES
 Maximum Displacement     0.000769     0.001800     YES
 RMS     Displacement     0.000415     0.001200     YES
 Predicted change in Energy=-1.657031D-07
 Optimization completed.
    -- Stationary point found.
                           ----------------------------
                           !   Optimized Parameters   !
                           ! (Angstroms and Degrees)  !
 --------------------------                            --------------------------
 ! Name  Definition              Value          Derivative Info.                !
 --------------------------------------------------------------------------------
 ! R1    R(1,2)                  1.1822         -DE/DX =    0.0002              !
 ! R2    R(1,3)                  1.0719         -DE/DX =    0.0                 !
 ! R3    R(1,4)                  1.3624         -DE/DX =    0.0003              !
 ! A1    A(2,1,3)              127.8664         -DE/DX =   -0.0001              !
 ! A2    A(2,1,4)              122.0336         -DE/DX =    0.0001              !
 ! A3    A(3,1,4)              110.1001         -DE/DX =    0.0                 !
 ! D1    D(2,1,4,3)            180.0            -DE/DX =    0.0                 !
 --------------------------------------------------------------------------------
 GradGradGradGradGradGradGradGradGradGradGradGradGradGradGradGradGradGrad

                          Input orientation:                          
 ---------------------------------------------------------------------
 Center     Atomic      Atomic             Coordinates (Angstroms)
 Number     Number       Type             X           Y           Z
 ---------------------------------------------------------------------
      1          6           0        0.147888    0.395888    0.000000
      2          8           0        1.133020   -0.257663    0.000000
      3          1           0        0.067415    1.464784    0.000000
      4          9           0       -1.092730   -0.167026    0.000000
 ---------------------------------------------------------------------
                    Distance matrix (angstroms):
                    1          2          3          4
     1  C    0.000000
     2  O    1.182207   0.000000
     3  H    1.071921   2.025423   0.000000
     4  F    1.362353   2.227594   2.002184   0.000000
 Stoichiometry    CHFO
 Framework group  CS[SG(CHFO)]
 Deg. of freedom     5
 Full point group                 CS      NOp   2
 Largest Abelian subgroup         CS      NOp   2
 Largest concise Abelian subgroup C1      NOp   1
                         Standard orientation:                         
 ---------------------------------------------------------------------
 Center     Atomic      Atomic             Coordinates (Angstroms)
 Number     Number       Type             X           Y           Z
 ---------------------------------------------------------------------
      1          6           0        0.000000    0.409177    0.000000
      2          8           0        1.149436    0.132754    0.000000
      3          1           0       -0.441866    1.385788    0.000000
      4          9           0       -0.972625   -0.544765    0.000000
 ---------------------------------------------------------------------
 Rotational constants (GHZ):          90.1388017          11.6240872          10.2963006

 **********************************************************************

            Population analysis using the SCF Density.

 **********************************************************************

 Orbital symmetries:
       Occupied  (A') (A') (A') (A') (A') (A') (A') (A') (A") (A')
                 (A") (A')
       Virtual   (A") (A') (A') (A') (A") (A') (A') (A') (A') (A')
                 (A") (A') (A") (A') (A') (A') (A')
 The electronic state is 1-A'.
 Alpha  occ. eigenvalues --  -26.34156 -20.63241 -11.46307  -1.66694  -1.48213
 Alpha  occ. eigenvalues --   -0.91753  -0.79505  -0.72490  -0.72404  -0.64043
 Alpha  occ. eigenvalues --   -0.56019  -0.51668
 Alpha virt. eigenvalues --    0.12190   0.23809   0.34929   0.40340   0.68297
 Alpha virt. eigenvalues --    0.71990   0.86886   0.95470   1.09548   1.20065
 Alpha virt. eigenvalues --    1.23985   1.32576   1.54457   1.59398   1.67046
 Alpha virt. eigenvalues --    1.96580   2.31760
          Condensed to atoms (all electrons):
               1          2          3          4
     1  C    4.383159   0.479777   0.374607   0.147077
     2  O    0.479777   8.069397  -0.058369  -0.063410
     3  H    0.374607  -0.058369   0.533597  -0.060316
     4  F    0.147077  -0.063410  -0.060316   9.375115
 Mulliken charges:
               1
     1  C    0.615380
     2  O   -0.427395
     3  H    0.210481
     4  F   -0.398466
 Sum of Mulliken charges =   0.00000
 Mulliken charges with hydrogens summed into heavy atoms:
               1
     1  C    0.825861
     2  O   -0.427395
     4  F   -0.398466
 Electronic spatial extent (au):  <R**2>=            126.7707
 Charge=              0.0000 electrons
 Dipole moment (field-independent basis, Debye):
    X=             -1.4138    Y=              2.3628    Z=              0.0000  Tot=              2.7535
 Quadrupole moment (field-independent basis, Debye-Ang):
   XX=            -20.5594   YY=            -14.7006   ZZ=            -15.0953
   XY=             -1.6813   XZ=              0.0000   YZ=              0.0000
 Traceless Quadrupole moment (field-independent basis, Debye-Ang):
   XX=             -3.7743   YY=              2.0845   ZZ=              1.6898
   XY=             -1.6813   XZ=              0.0000   YZ=              0.0000
 Octapole moment (field-independent basis, Debye-Ang**2):
  XXX=             -6.6050  YYY=             -0.1549  ZZZ=              0.0000  XYY=             -1.7586
  XXY=             -0.2890  XXZ=              0.0000  XZZ=             -1.2043  YZZ=             -0.8372
  YYZ=              0.0000  XYZ=              0.0000
 Hexadecapole moment (field-independent basis, Debye-Ang**3):
 XXXX=            -89.8192 YYYY=            -29.3687 ZZZZ=            -10.6900 XXXY=            -10.7431
 XXXZ=              0.0000 YYYX=            -10.1905 YYYZ=              0.0000 ZZZX=              0.0000
 ZZZY=              0.0000 XXYY=            -19.7854 XXZZ=            -15.5766 YYZZ=             -7.3353
 XXYZ=              0.0000 YYXZ=              0.0000 ZZXY=             -2.9957
 N-N= 6.699570048801D+01 E-N=-6.389879560912D+02  KE= 2.126181840045D+02
 Symmetry A'   KE= 2.027713743856D+02
 Symmetry A"   KE= 9.846809618837D+00
 1|1|UNPC-WIN10-2T0259|FOpt|RHF|6-31G|C1H1F1O1|SDDX|16-Apr-2026|0||# op
 t hf/6-31g geom=connectivity||Title Card Required||0,1|C,0.147888235,0
 .395887876,0.|O,1.1330196578,-0.2576634054,0.|H,0.0674152848,1.4647841
 49,0.|F,-1.0927296276,-0.1670257496,0.||Version=EM64W-G16RevB.01|State
 =1-A'|HF=-212.6541186|RMSD=3.508e-009|RMSF=1.124e-004|Dipole=-0.204039
 ,1.0639248,0.|Quadrupole=-3.0994655,1.8431459,1.2563196,0.445742,0.,0.
 |PG=CS [SG(C1H1F1O1)]||@


 A COMPUTER IS LIKE A HORSE, IT WILL SENSE WEAKNESS.
     -- GREG WETTSTEIN
 Job cpu time:       0 days  0 hours  0 minutes  5.0 seconds.
 Elapsed time:       0 days  0 hours  0 minutes  3.2 seconds.
 File lengths (MBytes):  RWF=      6 Int=      0 D2E=      0 Chk=      1 Scr=      1
 Normal termination of Gaussian 16 at Thu Apr 16 10:36:14 2026.
