 Entering Link 1 = C:\G16W\l1.exe PID=      3316.
  
 Copyright (c) 1988-2017, Gaussian, Inc.  All Rights Reserved.
  
 This is part of the Gaussian(R) 16 program.  It is based on
 the Gaussian(R) 09 system (copyright 2009, Gaussian, Inc.),
 the Gaussian(R) 03 system (copyright 2003, Gaussian, Inc.),
 the Gaussian(R) 98 system (copyright 1998, Gaussian, Inc.),
 the Gaussian(R) 94 system (copyright 1995, Gaussian, Inc.),
 the Gaussian 92(TM) system (copyright 1992, Gaussian, Inc.),
 the Gaussian 90(TM) system (copyright 1990, Gaussian, Inc.),
 the Gaussian 88(TM) system (copyright 1988, Gaussian, Inc.),
 the Gaussian 86(TM) system (copyright 1986, Carnegie Mellon
 University), and the Gaussian 82(TM) system (copyright 1983,
 Carnegie Mellon University). Gaussian is a federally registered
 trademark of Gaussian, Inc.
  
 This software contains proprietary and confidential information,
 including trade secrets, belonging to Gaussian, Inc.
  
 This software is provided under written license and may be
 used, copied, transmitted, or stored only in accord with that
 written license.
  
 The following legend is applicable only to US Government
 contracts under FAR:
  
                    RESTRICTED RIGHTS LEGEND
  
 Use, reproduction and disclosure by the US Government is
 subject to restrictions as set forth in subparagraphs (a)
 and (c) of the Commercial Computer Software - Restricted
 Rights clause in FAR 52.227-19.
  
 Gaussian, Inc.
 340 Quinnipiac St., Bldg. 40, Wallingford CT 06492
  
  
 ---------------------------------------------------------------
 Warning -- This program may not be used in any manner that
 competes with the business of Gaussian, Inc. or will provide
 assistance to any competitor of Gaussian, Inc.  The licensee
 of this program is prohibited from giving any competitor of
 Gaussian, Inc. access to this program.  By using this program,
 the user acknowledges that Gaussian, Inc. is engaged in the
 business of creating and licensing software in the field of
 computational chemistry and represents and warrants to the
 licensee that it is not a competitor of Gaussian, Inc. and that
 it will not use this program in any manner prohibited above.
 ---------------------------------------------------------------
  

 Cite this work as:
 Gaussian 16, Revision B.01,
 M. J. Frisch, G. W. Trucks, H. B. Schlegel, G. E. Scuseria, 
 M. A. Robb, J. R. Cheeseman, G. Scalmani, V. Barone, 
 G. A. Petersson, H. Nakatsuji, X. Li, M. Caricato, A. V. Marenich, 
 J. Bloino, B. G. Janesko, R. Gomperts, B. Mennucci, H. P. Hratchian, 
 J. V. Ortiz, A. F. Izmaylov, J. L. Sonnenberg, D. Williams-Young, 
 F. Ding, F. Lipparini, F. Egidi, J. Goings, B. Peng, A. Petrone, 
 T. Henderson, D. Ranasinghe, V. G. Zakrzewski, J. Gao, N. Rega, 
 G. Zheng, W. Liang, M. Hada, M. Ehara, K. Toyota, R. Fukuda, 
 J. Hasegawa, M. Ishida, T. Nakajima, Y. Honda, O. Kitao, H. Nakai, 
 T. Vreven, K. Throssell, J. A. Montgomery, Jr., J. E. Peralta, 
 F. Ogliaro, M. J. Bearpark, J. J. Heyd, E. N. Brothers, K. N. Kudin, 
 V. N. Staroverov, T. A. Keith, R. Kobayashi, J. Normand, 
 K. Raghavachari, A. P. Rendell, J. C. Burant, S. S. Iyengar, 
 J. Tomasi, M. Cossi, J. M. Millam, M. Klene, C. Adamo, R. Cammi, 
 J. W. Ochterski, R. L. Martin, K. Morokuma, O. Farkas, 
 J. B. Foresman, and D. J. Fox, Gaussian, Inc., Wallingford CT, 2016.
 
 ******************************************
 Gaussian 16:  EM64W-G16RevB.01 16-Dec-2017
                20-Apr-2026 
 ******************************************
 %chk=D:\APPs\lihaibei\molecules-use\H2O2.chk
 ----------------------------
 # hf/3-21g geom=connectivity
 ----------------------------
 1/38=1,57=2,172=1/1;
 2/12=2,17=6,18=5,40=1/2;
 3/5=5,11=9,25=1,30=1/1,2,3;
 4//1;
 5/5=2,38=5/2;
 6/7=2,8=2,9=2,10=2,28=1/1;
 99/5=1,9=1/99;
 -------------------
 Title Card Required
 -------------------
 Symbolic Z-matrix:
 Charge =  0 Multiplicity = 1
 O                    -0.12313   0.64841  -0.05224 
 H                     0.57671   1.10749   0.41795 
 O                     0.12313  -0.64841  -0.05224 
 H                    -0.57671  -1.10749   0.41795 
 
                          Input orientation:                          
 ---------------------------------------------------------------------
 Center     Atomic      Atomic             Coordinates (Angstroms)
 Number     Number       Type             X           Y           Z
 ---------------------------------------------------------------------
      1          8           0       -0.123127    0.648413   -0.052243
      2          1           0        0.576711    1.107487    0.417947
      3          8           0        0.123127   -0.648413   -0.052243
      4          1           0       -0.576711   -1.107487    0.417947
 ---------------------------------------------------------------------
                    Distance matrix (angstroms):
                    1          2          3          4
     1  O    0.000000
     2  H    0.960000   0.000000
     3  O    1.320000   1.873500   0.000000
     4  H    1.873500   2.497297   0.960000   0.000000
 Stoichiometry    H2O2
 Framework group  C2[X(H2O2)]
 Deg. of freedom     4
 Full point group                 C2      NOp   2
 Largest Abelian subgroup         C2      NOp   2
 Largest concise Abelian subgroup C2      NOp   2
                         Standard orientation:                         
 ---------------------------------------------------------------------
 Center     Atomic      Atomic             Coordinates (Angstroms)
 Number     Number       Type             X           Y           Z
 ---------------------------------------------------------------------
      1          8           0        0.000000    0.660000   -0.052243
      2          1           0        0.773195    0.980455    0.417947
      3          8           0        0.000000   -0.660000   -0.052243
      4          1           0       -0.773195   -0.980455    0.417947
 ---------------------------------------------------------------------
 Rotational constants (GHZ):         344.5632335          30.7238121          29.5934140
 Standard basis: 3-21G (6D, 7F)
 There are    11 symmetry adapted cartesian basis functions of A   symmetry.
 There are    11 symmetry adapted cartesian basis functions of B   symmetry.
 There are    11 symmetry adapted basis functions of A   symmetry.
 There are    11 symmetry adapted basis functions of B   symmetry.
    22 basis functions,    36 primitive gaussians,    22 cartesian basis functions
     9 alpha electrons        9 beta electrons
       nuclear repulsion energy        39.2078558506 Hartrees.
 NAtoms=    4 NActive=    4 NUniq=    2 SFac= 4.00D+00 NAtFMM=   60 NAOKFM=F Big=F
 Integral buffers will be    131072 words long.
 Raffenetti 1 integral format.
 Two-electron integral symmetry is turned on.
 One-electron integrals computed using PRISM.
 NBasis=    22 RedAO= T EigKep=  6.17D-02  NBF=    11    11
 NBsUse=    22 1.00D-06 EigRej= -1.00D+00 NBFU=    11    11
 ExpMin= 1.83D-01 ExpMax= 3.22D+02 ExpMxC= 3.22D+02 IAcc=3 IRadAn=         5 AccDes= 0.00D+00
 Harris functional with IExCor=  205 and IRadAn=       5 diagonalized for initial guess.
 HarFok:  IExCor=  205 AccDes= 0.00D+00 IRadAn=         5 IDoV= 1 UseB2=F ITyADJ=14
 ICtDFT=  3500011 ScaDFX=  1.000000  1.000000  1.000000  1.000000
 FoFCou: FMM=F IPFlag=           0 FMFlag=      100000 FMFlg1=           0
         NFxFlg=           0 DoJE=T BraDBF=F KetDBF=T FulRan=T
         wScrn=  0.000000 ICntrl=       500 IOpCl=  0 I1Cent=   200000004 NGrid=           0
         NMat0=    1 NMatS0=      1 NMatT0=    0 NMatD0=    1 NMtDS0=    0 NMtDT0=    0
 Petite list used in FoFCou.
 Initial guess orbital symmetries:
       Occupied  (B) (A) (A) (B) (A) (B) (A) (A) (B)
       Virtual   (B) (A) (B) (A) (B) (B) (A) (B) (B) (A) (A) (A)
                 (B)
 The electronic state of the initial guess is 1-A.
 Keep R1 ints in memory in symmetry-blocked form, NReq=837113.
 Requested convergence on RMS density matrix=1.00D-08 within 128 cycles.
 Requested convergence on MAX density matrix=1.00D-06.
 Requested convergence on             energy=1.00D-06.
 No special actions if energy rises.
 SCF Done:  E(RHF) =  -149.923232755     A.U. after   11 cycles
            NFock= 11  Conv=0.35D-08     -V/T= 2.0009

 **********************************************************************

            Population analysis using the SCF Density.

 **********************************************************************

 Orbital symmetries:
       Occupied  (A) (B) (A) (B) (A) (B) (A) (A) (B)
       Virtual   (B) (A) (B) (B) (A) (B) (A) (B) (B) (A) (A) (A)
                 (B)
 The electronic state is 1-A.
 Alpha  occ. eigenvalues --  -20.49870 -20.49857  -1.52511  -1.17757  -0.73497
 Alpha  occ. eigenvalues --   -0.69396  -0.61910  -0.46882  -0.43415
 Alpha virt. eigenvalues --    0.26367   0.27884   0.45724   1.21995   1.24603
 Alpha virt. eigenvalues --    1.72330   1.72803   1.84975   1.96644   1.98043
 Alpha virt. eigenvalues --    2.07990   2.98381   3.34899
          Condensed to atoms (all electrons):
               1          2          3          4
     1  O    8.133270   0.256893   0.057381  -0.035840
     2  H    0.256893   0.365623  -0.035840   0.001620
     3  O    0.057381  -0.035840   8.133270   0.256893
     4  H   -0.035840   0.001620   0.256893   0.365623
 Mulliken charges:
               1
     1  O   -0.411704
     2  H    0.411704
     3  O   -0.411704
     4  H    0.411704
 Sum of Mulliken charges =   0.00000
 Mulliken charges with hydrogens summed into heavy atoms:
               1
     1  O    0.000000
     3  O    0.000000
 Electronic spatial extent (au):  <R**2>=             60.1477
 Charge=              0.0000 electrons
 Dipole moment (field-independent basis, Debye):
    X=              0.0000    Y=              0.0000    Z=              2.1546  Tot=              2.1546
 Quadrupole moment (field-independent basis, Debye-Ang):
   XX=             -9.0661   YY=            -10.3529   ZZ=            -11.1399
   XY=              3.5629   XZ=              0.0000   YZ=              0.0000
 Traceless Quadrupole moment (field-independent basis, Debye-Ang):
   XX=              1.1202   YY=             -0.1666   ZZ=             -0.9536
   XY=              3.5629   XZ=              0.0000   YZ=              0.0000
 Octapole moment (field-independent basis, Debye-Ang**2):
  XXX=              0.0000  YYY=              0.0000  ZZZ=              1.1043  XYY=              0.0000
  XXY=              0.0000  XXZ=              1.2470  XZZ=              0.0000  YZZ=              0.0000
  YYZ=              2.3020  XYZ=              1.4432
 Hexadecapole moment (field-independent basis, Debye-Ang**3):
 XXXX=             -7.9727 YYYY=            -35.0408 ZZZZ=             -7.9514 XXXY=              0.2872
 XXXZ=              0.0000 YYYX=              1.8815 YYYZ=              0.0000 ZZZX=              0.0000
 ZZZY=              0.0000 XXYY=             -6.0176 XXZZ=             -2.4582 YYZZ=             -7.6365
 XXYZ=              0.0000 YYXZ=              0.0000 ZZXY=             -0.0061
 N-N= 3.920785585059D+01 E-N=-4.347478476702D+02  KE= 1.497875782939D+02
 Symmetry A    KE= 7.665784601962D+01
 Symmetry B    KE= 7.312973227429D+01
 1|1|UNPC-WIN10-2T0259|SP|RHF|3-21G|H2O2|SDDX|20-Apr-2026|0||# hf/3-21g
  geom=connectivity||Title Card Required||0,1|O,0,-0.1231274,0.64841317
 ,-0.05224333|H,0,0.57671053,1.10748701,0.41794667|O,0,0.1231274,-0.648
 41317,-0.05224333|H,0,-0.57671053,-1.10748701,0.41794667||Version=EM64
 W-G16RevB.01|State=1-A|HF=-149.9232328|RMSD=3.484e-009|Dipole=0.,0.,0.
 8476894|Quadrupole=-0.1714516,0.880414,-0.7089623,2.6398788,0.,0.|PG=C
 02 [X(H2O2)]||@


 CONFIDENCE: THAT QUIET ASSURED FEELING YOU HAVE
 JUST BEFORE YOU FALL FLAT ON YOUR FACE.
 Job cpu time:       0 days  0 hours  0 minutes  3.0 seconds.
 Elapsed time:       0 days  0 hours  0 minutes  0.7 seconds.
 File lengths (MBytes):  RWF=      6 Int=      0 D2E=      0 Chk=      1 Scr=      1
 Normal termination of Gaussian 16 at Mon Apr 20 10:39:13 2026.
