 Entering Link 1 = C:\G16W\l1.exe PID=      9344.
  
 Copyright (c) 1988-2017, Gaussian, Inc.  All Rights Reserved.
  
 This is part of the Gaussian(R) 16 program.  It is based on
 the Gaussian(R) 09 system (copyright 2009, Gaussian, Inc.),
 the Gaussian(R) 03 system (copyright 2003, Gaussian, Inc.),
 the Gaussian(R) 98 system (copyright 1998, Gaussian, Inc.),
 the Gaussian(R) 94 system (copyright 1995, Gaussian, Inc.),
 the Gaussian 92(TM) system (copyright 1992, Gaussian, Inc.),
 the Gaussian 90(TM) system (copyright 1990, Gaussian, Inc.),
 the Gaussian 88(TM) system (copyright 1988, Gaussian, Inc.),
 the Gaussian 86(TM) system (copyright 1986, Carnegie Mellon
 University), and the Gaussian 82(TM) system (copyright 1983,
 Carnegie Mellon University). Gaussian is a federally registered
 trademark of Gaussian, Inc.
  
 This software contains proprietary and confidential information,
 including trade secrets, belonging to Gaussian, Inc.
  
 This software is provided under written license and may be
 used, copied, transmitted, or stored only in accord with that
 written license.
  
 The following legend is applicable only to US Government
 contracts under FAR:
  
                    RESTRICTED RIGHTS LEGEND
  
 Use, reproduction and disclosure by the US Government is
 subject to restrictions as set forth in subparagraphs (a)
 and (c) of the Commercial Computer Software - Restricted
 Rights clause in FAR 52.227-19.
  
 Gaussian, Inc.
 340 Quinnipiac St., Bldg. 40, Wallingford CT 06492
  
  
 ---------------------------------------------------------------
 Warning -- This program may not be used in any manner that
 competes with the business of Gaussian, Inc. or will provide
 assistance to any competitor of Gaussian, Inc.  The licensee
 of this program is prohibited from giving any competitor of
 Gaussian, Inc. access to this program.  By using this program,
 the user acknowledges that Gaussian, Inc. is engaged in the
 business of creating and licensing software in the field of
 computational chemistry and represents and warrants to the
 licensee that it is not a competitor of Gaussian, Inc. and that
 it will not use this program in any manner prohibited above.
 ---------------------------------------------------------------
  

 Cite this work as:
 Gaussian 16, Revision B.01,
 M. J. Frisch, G. W. Trucks, H. B. Schlegel, G. E. Scuseria, 
 M. A. Robb, J. R. Cheeseman, G. Scalmani, V. Barone, 
 G. A. Petersson, H. Nakatsuji, X. Li, M. Caricato, A. V. Marenich, 
 J. Bloino, B. G. Janesko, R. Gomperts, B. Mennucci, H. P. Hratchian, 
 J. V. Ortiz, A. F. Izmaylov, J. L. Sonnenberg, D. Williams-Young, 
 F. Ding, F. Lipparini, F. Egidi, J. Goings, B. Peng, A. Petrone, 
 T. Henderson, D. Ranasinghe, V. G. Zakrzewski, J. Gao, N. Rega, 
 G. Zheng, W. Liang, M. Hada, M. Ehara, K. Toyota, R. Fukuda, 
 J. Hasegawa, M. Ishida, T. Nakajima, Y. Honda, O. Kitao, H. Nakai, 
 T. Vreven, K. Throssell, J. A. Montgomery, Jr., J. E. Peralta, 
 F. Ogliaro, M. J. Bearpark, J. J. Heyd, E. N. Brothers, K. N. Kudin, 
 V. N. Staroverov, T. A. Keith, R. Kobayashi, J. Normand, 
 K. Raghavachari, A. P. Rendell, J. C. Burant, S. S. Iyengar, 
 J. Tomasi, M. Cossi, J. M. Millam, M. Klene, C. Adamo, R. Cammi, 
 J. W. Ochterski, R. L. Martin, K. Morokuma, O. Farkas, 
 J. B. Foresman, and D. J. Fox, Gaussian, Inc., Wallingford CT, 2016.
 
 ******************************************
 Gaussian 16:  EM64W-G16RevB.01 16-Dec-2017
                16-Apr-2026 
 ******************************************
 %chk=D:\APPs\lihaibei\molecules-use\NH3.chk
 --------------------------------
 # opt hf/6-31g geom=connectivity
 --------------------------------
 1/18=20,19=15,38=1,57=2/1,3;
 2/9=110,12=2,17=6,18=5,40=1/2;
 3/5=1,6=6,11=9,25=1,30=1,71=1/1,2,3;
 4//1;
 5/5=2,38=5/2;
 6/7=2,8=2,9=2,10=2,28=1/1;
 7//1,2,3,16;
 1/18=20,19=15/3(2);
 2/9=110/2;
 99//99;
 2/9=110/2;
 3/5=1,6=6,11=9,25=1,30=1,71=1/1,2,3;
 4/5=5,16=3,69=1/1;
 5/5=2,38=5/2;
 7//1,2,3,16;
 1/18=20,19=15/3(-5);
 2/9=110/2;
 6/7=2,8=2,9=2,10=2,19=2,28=1/1;
 99/9=1/99;
 -------------------
 Title Card Required
 -------------------
 Symbolic Z-matrix:
 Charge =  0 Multiplicity = 1
 N                     0.        0.       -0.1 
 H                     0.       -0.94281   0.23333 
 H                    -0.8165    0.4714    0.23333 
 H                     0.8165    0.4714    0.23333 
 

 GradGradGradGradGradGradGradGradGradGradGradGradGradGradGradGradGradGrad
 Berny optimization.
 Initialization pass.
                           ----------------------------
                           !    Initial Parameters    !
                           ! (Angstroms and Degrees)  !
 --------------------------                            --------------------------
 ! Name  Definition              Value          Derivative Info.                !
 --------------------------------------------------------------------------------
 ! R1    R(1,2)                  1.0            estimate D2E/DX2                !
 ! R2    R(1,3)                  1.0            estimate D2E/DX2                !
 ! R3    R(1,4)                  1.0            estimate D2E/DX2                !
 ! A1    A(2,1,3)              109.4712         estimate D2E/DX2                !
 ! A2    A(2,1,4)              109.4712         estimate D2E/DX2                !
 ! A3    A(3,1,4)              109.4712         estimate D2E/DX2                !
 ! D1    D(2,1,4,3)           -120.0            estimate D2E/DX2                !
 --------------------------------------------------------------------------------
 Trust Radius=3.00D-01 FncErr=1.00D-07 GrdErr=1.00D-07 EigMax=2.50D+02 EigMin=1.00D-04
 Number of steps in this run=     20 maximum allowed number of steps=    100.
 GradGradGradGradGradGradGradGradGradGradGradGradGradGradGradGradGradGrad

                          Input orientation:                          
 ---------------------------------------------------------------------
 Center     Atomic      Atomic             Coordinates (Angstroms)
 Number     Number       Type             X           Y           Z
 ---------------------------------------------------------------------
      1          7           0        0.000000    0.000000   -0.100000
      2          1           0        0.000000   -0.942809    0.233333
      3          1           0       -0.816497    0.471405    0.233333
      4          1           0        0.816497    0.471405    0.233333
 ---------------------------------------------------------------------
                    Distance matrix (angstroms):
                    1          2          3          4
     1  N    0.000000
     2  H    1.000000   0.000000
     3  H    1.000000   1.632993   0.000000
     4  H    1.000000   1.632993   1.632993   0.000000
 Stoichiometry    H3N
 Framework group  C3V[C3(N),3SGV(H)]
 Deg. of freedom     2
 Full point group                 C3V     NOp   6
 Largest Abelian subgroup         CS      NOp   2
 Largest concise Abelian subgroup CS      NOp   2
                         Standard orientation:                         
 ---------------------------------------------------------------------
 Center     Atomic      Atomic             Coordinates (Angstroms)
 Number     Number       Type             X           Y           Z
 ---------------------------------------------------------------------
      1          7           0        0.000000    0.000000    0.100000
      2          1           0        0.000000    0.942809   -0.233333
      3          1           0       -0.816497   -0.471405   -0.233333
      4          1           0        0.816497   -0.471405   -0.233333
 ---------------------------------------------------------------------
 Rotational constants (GHZ):         311.9520343         311.9520343         188.0456808
 Standard basis: 6-31G (6D, 7F)
 There are    11 symmetry adapted cartesian basis functions of A'  symmetry.
 There are     4 symmetry adapted cartesian basis functions of A"  symmetry.
 There are    11 symmetry adapted basis functions of A'  symmetry.
 There are     4 symmetry adapted basis functions of A"  symmetry.
    15 basis functions,    34 primitive gaussians,    15 cartesian basis functions
     5 alpha electrons        5 beta electrons
       nuclear repulsion energy        12.0848828292 Hartrees.
 NAtoms=    4 NActive=    4 NUniq=    2 SFac= 4.00D+00 NAtFMM=   60 NAOKFM=F Big=F
 Integral buffers will be    131072 words long.
 Raffenetti 1 integral format.
 Two-electron integral symmetry is turned on.
 One-electron integrals computed using PRISM.
 NBasis=    15 RedAO= T EigKep=  4.04D-02  NBF=    11     4
 NBsUse=    15 1.00D-06 EigRej= -1.00D+00 NBFU=    11     4
 ExpMin= 1.61D-01 ExpMax= 4.17D+03 ExpMxC= 6.27D+02 IAcc=3 IRadAn=         5 AccDes= 0.00D+00
 Harris functional with IExCor=  205 and IRadAn=       5 diagonalized for initial guess.
 HarFok:  IExCor=  205 AccDes= 0.00D+00 IRadAn=         5 IDoV= 1 UseB2=F ITyADJ=14
 ICtDFT=  3500011 ScaDFX=  1.000000  1.000000  1.000000  1.000000
 FoFCou: FMM=F IPFlag=           0 FMFlag=      100000 FMFlg1=           0
         NFxFlg=           0 DoJE=T BraDBF=F KetDBF=T FulRan=T
         wScrn=  0.000000 ICntrl=       500 IOpCl=  0 I1Cent=   200000004 NGrid=           0
         NMat0=    1 NMatS0=      1 NMatT0=    0 NMatD0=    1 NMtDS0=    0 NMtDT0=    0
 Petite list used in FoFCou.
 Initial guess orbital symmetries:
       Occupied  (A1) (A1) (E) (E) (A1)
       Virtual   (A1) (E) (E) (A1) (E) (E) (E) (E) (A1) (A1)
 The electronic state of the initial guess is 1-A1.
 Keep R1 ints in memory in symmetry-blocked form, NReq=814150.
 Requested convergence on RMS density matrix=1.00D-08 within 128 cycles.
 Requested convergence on MAX density matrix=1.00D-06.
 Requested convergence on             energy=1.00D-06.
 No special actions if energy rises.
 SCF Done:  E(RHF) =  -56.1634474464     A.U. after   10 cycles
            NFock= 10  Conv=0.10D-08     -V/T= 1.9990

 **********************************************************************

            Population analysis using the SCF Density.

 **********************************************************************

 Orbital symmetries:
       Occupied  (A1) (A1) (E) (E) (A1)
       Virtual   (A1) (E) (E) (E) (E) (A1) (A1) (E) (E) (A1)
 The electronic state is 1-A1.
 Alpha  occ. eigenvalues --  -15.53128  -1.14656  -0.63215  -0.63215  -0.40774
 Alpha virt. eigenvalues --    0.22080   0.32338   0.32338   0.93194   0.93194
 Alpha virt. eigenvalues --    0.97638   1.22913   1.25688   1.25688   1.48628
          Condensed to atoms (all electrons):
               1          2          3          4
     1  N    6.925152   0.333422   0.333422   0.333422
     2  H    0.333422   0.422996  -0.032445  -0.032445
     3  H    0.333422  -0.032445   0.422996  -0.032445
     4  H    0.333422  -0.032445  -0.032445   0.422996
 Mulliken charges:
               1
     1  N   -0.925418
     2  H    0.308473
     3  H    0.308473
     4  H    0.308473
 Sum of Mulliken charges =   0.00000
 Mulliken charges with hydrogens summed into heavy atoms:
               1
     1  N    0.000000
 Electronic spatial extent (au):  <R**2>=             26.0164
 Charge=              0.0000 electrons
 Dipole moment (field-independent basis, Debye):
    X=              0.0000    Y=              0.0000    Z=             -2.1261  Tot=              2.1261
 Quadrupole moment (field-independent basis, Debye-Ang):
   XX=             -5.9923   YY=             -5.9923   ZZ=             -9.0791
   XY=              0.0000   XZ=              0.0000   YZ=              0.0000
 Traceless Quadrupole moment (field-independent basis, Debye-Ang):
   XX=              1.0289   YY=              1.0289   ZZ=             -2.0578
   XY=              0.0000   XZ=              0.0000   YZ=              0.0000
 Octapole moment (field-independent basis, Debye-Ang**2):
  XXX=              0.0000  YYY=              0.8450  ZZZ=             -1.8758  XYY=              0.0000
  XXY=             -0.8450  XXZ=             -0.9147  XZZ=              0.0000  YZZ=              0.0000
  YYZ=             -0.9147  XYZ=              0.0000
 Hexadecapole moment (field-independent basis, Debye-Ang**3):
 XXXX=             -9.0790 YYYY=             -9.0790 ZZZZ=             -9.6300 XXXY=              0.0000
 XXXZ=              0.0000 YYYX=              0.0000 YYYZ=             -0.2722 ZZZX=              0.0000
 ZZZY=              0.0000 XXYY=             -3.0263 XXZZ=             -3.2102 YYZZ=             -3.2102
 XXYZ=              0.2722 YYXZ=              0.0000 ZZXY=              0.0000
 N-N= 1.208488282924D+01 E-N=-1.560164380206D+02  KE= 5.621953651569D+01
 Symmetry A'   KE= 5.361426691799D+01
 Symmetry A"   KE= 2.605269597699D+00
 Calling FoFJK, ICntrl=      2127 FMM=F ISym2X=1 I1Cent= 0 IOpClX= 0 NMat=1 NMatS=1 NMatT=0.
 ***** Axes restored to original set *****
 -------------------------------------------------------------------
 Center     Atomic                   Forces (Hartrees/Bohr)
 Number     Number              X              Y              Z
 -------------------------------------------------------------------
      1        7           0.000000000    0.000000000    0.018297543
      2        1           0.000000000   -0.002524932   -0.006099181
      3        1          -0.002186655    0.001262466   -0.006099181
      4        1           0.002186655    0.001262466   -0.006099181
 -------------------------------------------------------------------
 Cartesian Forces:  Max     0.018297543 RMS     0.006228469

 GradGradGradGradGradGradGradGradGradGradGradGradGradGradGradGradGradGrad
 Berny optimization.
 FormGI is forming the generalized inverse of G from B-inverse, IUseBI=4.
 Internal  Forces:  Max     0.009388772 RMS     0.005062677
 Search for a local minimum.
 Step number   1 out of a maximum of   20
 All quantities printed in internal units (Hartrees-Bohrs-Radians)
 Mixed Optimization -- RFO/linear search
 Second derivative matrix not updated -- first step.
 The second derivative matrix:
                          R1        R2        R3        A1        A2
           R1           0.47688
           R2           0.00000   0.47688
           R3           0.00000   0.00000   0.47688
           A1           0.00000   0.00000   0.00000   0.16000
           A2           0.00000   0.00000   0.00000   0.00000   0.16000
           A3           0.00000   0.00000   0.00000   0.00000   0.00000
           D1           0.00000   0.00000   0.00000   0.00000   0.00000
                          A3        D1
           A3           0.16000
           D1           0.00000   0.01028
 ITU=  0
     Eigenvalues ---    0.05635   0.16000   0.16000   0.47688   0.47688
     Eigenvalues ---    0.47688
 RFO step:  Lambda=-2.48327584D-03 EMin= 5.63503310D-02
 Linear search not attempted -- first point.
 Iteration  1 RMS(Cart)=  0.04678429 RMS(Int)=  0.00533587
 Iteration  2 RMS(Cart)=  0.00263939 RMS(Int)=  0.00456693
 Iteration  3 RMS(Cart)=  0.00000394 RMS(Int)=  0.00456693
 Iteration  4 RMS(Cart)=  0.00000003 RMS(Int)=  0.00456693
 ClnCor:  largest displacement from symmetrization is 4.95D-03 for atom     4.
 Variable       Old X    -DE/DX   Delta X   Delta X   Delta X     New X
                                 (Linear)    (Quad)   (Total)
    R1        1.88973   0.00035   0.00000   0.00072  -0.00075   1.88898
    R2        1.88973   0.00035   0.00000   0.00072  -0.00075   1.88898
    R3        1.88973   0.00035   0.00000   0.00072  -0.00075   1.88898
    A1        1.91063   0.00096   0.00000   0.06131   0.06006   1.97069
    A2        1.91063   0.00671   0.00000   0.06899   0.06006   1.97069
    A3        1.91063   0.00671   0.00000   0.06899   0.06006   1.97069
    D1       -2.09440  -0.00939   0.00000  -0.15958  -0.16767  -2.26207
         Item               Value     Threshold  Converged?
 Maximum Force            0.009389     0.000450     NO 
 RMS     Force            0.005063     0.000300     NO 
 Maximum Displacement     0.087847     0.001800     NO 
 RMS     Displacement     0.045014     0.001200     NO 
 Predicted change in Energy=-1.426116D-03
 GradGradGradGradGradGradGradGradGradGradGradGradGradGradGradGradGradGrad

                          Input orientation:                          
 ---------------------------------------------------------------------
 Center     Atomic      Atomic             Coordinates (Angstroms)
 Number     Number       Type             X           Y           Z
 ---------------------------------------------------------------------
      1          7           0        0.000000    0.000000   -0.053513
      2          1           0        0.000000   -0.962019    0.218017
      3          1           0       -0.833133    0.481010    0.218017
      4          1           0        0.833133    0.481010    0.218017
 ---------------------------------------------------------------------
                    Distance matrix (angstroms):
                    1          2          3          4
     1  N    0.000000
     2  H    0.999605   0.000000
     3  H    0.999605   1.666267   0.000000
     4  H    0.999605   1.666267   1.666267   0.000000
 Stoichiometry    H3N
 Framework group  C3V[C3(N),3SGV(H)]
 Deg. of freedom     2
 Full point group                 C3V     NOp   6
 Largest Abelian subgroup         CS      NOp   2
 Largest concise Abelian subgroup CS      NOp   2
                         Standard orientation:                         
 ---------------------------------------------------------------------
 Center     Atomic      Atomic             Coordinates (Angstroms)
 Number     Number       Type             X           Y           Z
 ---------------------------------------------------------------------
      1          7           0        0.000000    0.000000    0.081459
      2          1           0        0.000000    0.962019   -0.190071
      3          1           0       -0.833133   -0.481010   -0.190071
      4          1           0        0.833133   -0.481010   -0.190071
 ---------------------------------------------------------------------
 Rotational constants (GHZ):         319.3715200         319.3715200         180.6105477
 Standard basis: 6-31G (6D, 7F)
 There are    11 symmetry adapted cartesian basis functions of A'  symmetry.
 There are     4 symmetry adapted cartesian basis functions of A"  symmetry.
 There are    11 symmetry adapted basis functions of A'  symmetry.
 There are     4 symmetry adapted basis functions of A"  symmetry.
    15 basis functions,    34 primitive gaussians,    15 cartesian basis functions
     5 alpha electrons        5 beta electrons
       nuclear repulsion energy        12.0698614594 Hartrees.
 NAtoms=    4 NActive=    4 NUniq=    2 SFac= 4.00D+00 NAtFMM=   60 NAOKFM=F Big=F
 Integral buffers will be    131072 words long.
 Raffenetti 1 integral format.
 Two-electron integral symmetry is turned on.
 One-electron integrals computed using PRISM.
 NBasis=    15 RedAO= T EigKep=  4.22D-02  NBF=    11     4
 NBsUse=    15 1.00D-06 EigRej= -1.00D+00 NBFU=    11     4
 Initial guess from the checkpoint file:  "D:\APPs\lihaibei\molecules-use\NH3.chk"
 B after Tr=     0.000000    0.000000    0.000000
         Rot=    1.000000    0.000000    0.000000    0.000000 Ang=   0.00 deg.
 Initial guess orbital symmetries:
       Occupied  (A1) (A1) (E) (E) (A1)
       Virtual   (A1) (E) (E) (E) (E) (A1) (A1) (E) (E) (A1)
 ExpMin= 1.61D-01 ExpMax= 4.17D+03 ExpMxC= 6.27D+02 IAcc=3 IRadAn=         5 AccDes= 0.00D+00
 Harris functional with IExCor=  205 and IRadAn=       5 diagonalized for initial guess.
 HarFok:  IExCor=  205 AccDes= 0.00D+00 IRadAn=         5 IDoV= 1 UseB2=F ITyADJ=14
 ICtDFT=  3500011 ScaDFX=  1.000000  1.000000  1.000000  1.000000
 FoFCou: FMM=F IPFlag=           0 FMFlag=      100000 FMFlg1=           0
         NFxFlg=           0 DoJE=T BraDBF=F KetDBF=T FulRan=T
         wScrn=  0.000000 ICntrl=       500 IOpCl=  0 I1Cent=   200000004 NGrid=           0
         NMat0=    1 NMatS0=      1 NMatT0=    0 NMatD0=    1 NMtDS0=    0 NMtDT0=    0
 Petite list used in FoFCou.
 Keep R1 ints in memory in symmetry-blocked form, NReq=814150.
 Requested convergence on RMS density matrix=1.00D-08 within 128 cycles.
 Requested convergence on MAX density matrix=1.00D-06.
 Requested convergence on             energy=1.00D-06.
 No special actions if energy rises.
 SCF Done:  E(RHF) =  -56.1650148802     A.U. after    9 cycles
            NFock=  9  Conv=0.14D-08     -V/T= 1.9994
 Calling FoFJK, ICntrl=      2127 FMM=F ISym2X=1 I1Cent= 0 IOpClX= 0 NMat=1 NMatS=1 NMatT=0.
 ***** Axes restored to original set *****
 -------------------------------------------------------------------
 Center     Atomic                   Forces (Hartrees/Bohr)
 Number     Number              X              Y              Z
 -------------------------------------------------------------------
      1        7           0.000000000    0.000000000    0.009732471
      2        1           0.000000000    0.003145493   -0.003244157
      3        1           0.002724076   -0.001572746   -0.003244157
      4        1          -0.002724077   -0.001572746   -0.003244157
 -------------------------------------------------------------------
 Cartesian Forces:  Max     0.009732471 RMS     0.003605286

 GradGradGradGradGradGradGradGradGradGradGradGradGradGradGradGradGradGrad
 Berny optimization.
 Using GEDIIS/GDIIS optimizer.
 FormGI is forming the generalized inverse of G from B-inverse, IUseBI=4.
 Internal  Forces:  Max     0.003908455 RMS     0.003052122
 Search for a local minimum.
 Step number   2 out of a maximum of   20
 All quantities printed in internal units (Hartrees-Bohrs-Radians)
 Mixed Optimization -- RFO/linear search
 Update second derivatives using D2CorX and points    1    2
 DE= -1.57D-03 DEPred=-1.43D-03 R= 1.10D+00
 TightC=F SS=  1.41D+00  RLast= 1.97D-01 DXNew= 5.0454D-01 5.9197D-01
 Trust test= 1.10D+00 RLast= 1.97D-01 DXMaxT set to 5.05D-01
 The second derivative matrix:
                          R1        R2        R3        A1        A2
           R1           0.48808
           R2           0.01120   0.48808
           R3           0.01120   0.01120   0.48808
           A1           0.00399   0.00399   0.00399   0.11479
           A2           0.01446   0.01446   0.01446  -0.04308   0.12880
           A3           0.01446   0.01446   0.01446  -0.04308  -0.03120
           D1          -0.01587  -0.01587  -0.01587   0.00502  -0.00945
                          A3        D1
           A3           0.12880
           D1          -0.00945   0.03032
 ITU=  1  0
 Use linear search instead of GDIIS.
     Eigenvalues ---    0.03507   0.16000   0.16459   0.47688   0.47688
     Eigenvalues ---    0.51486
 RFO step:  Lambda=-3.82427588D-04 EMin= 3.50672076D-02
 Quartic linear search produced a step of  0.85859.
 Iteration  1 RMS(Cart)=  0.04025535 RMS(Int)=  0.00847798
 Iteration  2 RMS(Cart)=  0.00279559 RMS(Int)=  0.00799173
 Iteration  3 RMS(Cart)=  0.00000785 RMS(Int)=  0.00799172
 Iteration  4 RMS(Cart)=  0.00000013 RMS(Int)=  0.00799172
 ClnCor:  largest displacement from symmetrization is 4.16D-03 for atom     4.
 Variable       Old X    -DE/DX   Delta X   Delta X   Delta X     New X
                                 (Linear)    (Quad)   (Total)
    R1        1.88898  -0.00391  -0.00064  -0.01606  -0.01543   1.87355
    R2        1.88898  -0.00391  -0.00064  -0.01606  -0.01543   1.87355
    R3        1.88898  -0.00391  -0.00064  -0.01606  -0.01543   1.87355
    A1        1.97069   0.00009   0.05156   0.01614   0.04829   2.01898
    A2        1.97069   0.00188   0.05156   0.00359   0.04829   2.01898
    A3        1.97069   0.00188   0.05156   0.00359   0.04829   2.01898
    D1       -2.26207  -0.00351  -0.14396  -0.02921  -0.17927  -2.44134
         Item               Value     Threshold  Converged?
 Maximum Force            0.003908     0.000450     NO 
 RMS     Force            0.003052     0.000300     NO 
 Maximum Displacement     0.088397     0.001800     NO 
 RMS     Displacement     0.039657     0.001200     NO 
 Predicted change in Energy=-2.505635D-04
 GradGradGradGradGradGradGradGradGradGradGradGradGradGradGradGradGradGrad

                          Input orientation:                          
 ---------------------------------------------------------------------
 Center     Atomic      Atomic             Coordinates (Angstroms)
 Number     Number       Type             X           Y           Z
 ---------------------------------------------------------------------
      1          7           0        0.000000    0.000000   -0.006736
      2          1           0        0.000000   -0.969154    0.202291
      3          1           0       -0.839312    0.484577    0.202291
      4          1           0        0.839312    0.484577    0.202291
 ---------------------------------------------------------------------
                    Distance matrix (angstroms):
                    1          2          3          4
     1  N    0.000000
     2  H    0.991440   0.000000
     3  H    0.991440   1.678625   0.000000
     4  H    0.991440   1.678625   1.678625   0.000000
 Stoichiometry    H3N
 Framework group  C3V[C3(N),3SGV(H)]
 Deg. of freedom     2
 Full point group                 C3V     NOp   6
 Largest Abelian subgroup         CS      NOp   2
 Largest concise Abelian subgroup CS      NOp   2
                         Standard orientation:                         
 ---------------------------------------------------------------------
 Center     Atomic      Atomic             Coordinates (Angstroms)
 Number     Number       Type             X           Y           Z
 ---------------------------------------------------------------------
      1          7           0        0.000000    0.000000    0.062708
      2          1           0        0.000000    0.969154   -0.146319
      3          1           0       -0.839312   -0.484577   -0.146319
      4          1           0        0.839312   -0.484577   -0.146319
 ---------------------------------------------------------------------
 Rotational constants (GHZ):         330.6244003         330.6244003         177.9610000
 Standard basis: 6-31G (6D, 7F)
 There are    11 symmetry adapted cartesian basis functions of A'  symmetry.
 There are     4 symmetry adapted cartesian basis functions of A"  symmetry.
 There are    11 symmetry adapted basis functions of A'  symmetry.
 There are     4 symmetry adapted basis functions of A"  symmetry.
    15 basis functions,    34 primitive gaussians,    15 cartesian basis functions
     5 alpha electrons        5 beta electrons
       nuclear repulsion energy        12.1544057294 Hartrees.
 NAtoms=    4 NActive=    4 NUniq=    2 SFac= 4.00D+00 NAtFMM=   60 NAOKFM=F Big=F
 Integral buffers will be    131072 words long.
 Raffenetti 1 integral format.
 Two-electron integral symmetry is turned on.
 One-electron integrals computed using PRISM.
 NBasis=    15 RedAO= T EigKep=  4.29D-02  NBF=    11     4
 NBsUse=    15 1.00D-06 EigRej= -1.00D+00 NBFU=    11     4
 Initial guess from the checkpoint file:  "D:\APPs\lihaibei\molecules-use\NH3.chk"
 B after Tr=     0.000000    0.000000    0.000000
         Rot=    1.000000    0.000000    0.000000    0.000000 Ang=   0.00 deg.
 Initial guess orbital symmetries:
       Occupied  (A1) (A1) (E) (E) (A1)
       Virtual   (A1) (E) (E) (E) (E) (A1) (A1) (E) (E) (A1)
 ExpMin= 1.61D-01 ExpMax= 4.17D+03 ExpMxC= 6.27D+02 IAcc=3 IRadAn=         5 AccDes= 0.00D+00
 Harris functional with IExCor=  205 and IRadAn=       5 diagonalized for initial guess.
 HarFok:  IExCor=  205 AccDes= 0.00D+00 IRadAn=         5 IDoV= 1 UseB2=F ITyADJ=14
 ICtDFT=  3500011 ScaDFX=  1.000000  1.000000  1.000000  1.000000
 FoFCou: FMM=F IPFlag=           0 FMFlag=      100000 FMFlg1=           0
         NFxFlg=           0 DoJE=T BraDBF=F KetDBF=T FulRan=T
         wScrn=  0.000000 ICntrl=       500 IOpCl=  0 I1Cent=   200000004 NGrid=           0
         NMat0=    1 NMatS0=      1 NMatT0=    0 NMatD0=    1 NMtDS0=    0 NMtDT0=    0
 Petite list used in FoFCou.
 Keep R1 ints in memory in symmetry-blocked form, NReq=814150.
 Requested convergence on RMS density matrix=1.00D-08 within 128 cycles.
 Requested convergence on MAX density matrix=1.00D-06.
 Requested convergence on             energy=1.00D-06.
 No special actions if energy rises.
 SCF Done:  E(RHF) =  -56.1655118210     A.U. after    9 cycles
            NFock=  9  Conv=0.12D-08     -V/T= 1.9989
 Calling FoFJK, ICntrl=      2127 FMM=F ISym2X=1 I1Cent= 0 IOpClX= 0 NMat=1 NMatS=1 NMatT=0.
 ***** Axes restored to original set *****
 -------------------------------------------------------------------
 Center     Atomic                   Forces (Hartrees/Bohr)
 Number     Number              X              Y              Z
 -------------------------------------------------------------------
      1        7           0.000000000    0.000000000    0.000554958
      2        1           0.000000000   -0.000552667   -0.000184986
      3        1          -0.000478624    0.000276334   -0.000184986
      4        1           0.000478624    0.000276334   -0.000184986
 -------------------------------------------------------------------
 Cartesian Forces:  Max     0.000554958 RMS     0.000332536

 GradGradGradGradGradGradGradGradGradGradGradGradGradGradGradGradGradGrad
 Berny optimization.
 Using GEDIIS/GDIIS optimizer.
 FormGI is forming the generalized inverse of G from B-inverse, IUseBI=4.
 Internal  Forces:  Max     0.000501244 RMS     0.000387124
 Search for a local minimum.
 Step number   3 out of a maximum of   20
 All quantities printed in internal units (Hartrees-Bohrs-Radians)
 Mixed Optimization -- En-DIIS/RFO-DIIS
 Update second derivatives using D2CorX and points    1    2    3
 DE= -4.97D-04 DEPred=-2.51D-04 R= 1.98D+00
 TightC=F SS=  1.41D+00  RLast= 2.00D-01 DXNew= 8.4853D-01 5.9886D-01
 Trust test= 1.98D+00 RLast= 2.00D-01 DXMaxT set to 5.99D-01
 The second derivative matrix:
                          R1        R2        R3        A1        A2
           R1           0.49661
           R2           0.01973   0.49661
           R3           0.01973   0.01973   0.49661
           A1           0.00398   0.00398   0.00398   0.11473
           A2           0.01366   0.01366   0.01366  -0.04369   0.12271
           A3           0.01366   0.01366   0.01366  -0.04369  -0.03729
           D1          -0.01311  -0.01311  -0.01311   0.00580  -0.00174
                          A3        D1
           A3           0.12271
           D1          -0.00174   0.02091
 ITU=  1  1  0
 Use linear search instead of GDIIS.
     Eigenvalues ---    0.01970   0.16000   0.16198   0.47688   0.47688
     Eigenvalues ---    0.53887
 RFO step:  Lambda=-6.85165215D-06 EMin= 1.97021216D-02
 Quartic linear search produced a step of  0.12116.
 Iteration  1 RMS(Cart)=  0.00619319 RMS(Int)=  0.00062473
 Iteration  2 RMS(Cart)=  0.00005694 RMS(Int)=  0.00062209
 Iteration  3 RMS(Cart)=  0.00000001 RMS(Int)=  0.00062209
 ClnCor:  largest displacement from symmetrization is 2.81D-04 for atom     4.
 Variable       Old X    -DE/DX   Delta X   Delta X   Delta X     New X
                                 (Linear)    (Quad)   (Total)
    R1        1.87355   0.00050  -0.00187   0.00168  -0.00011   1.87344
    R2        1.87355   0.00050  -0.00187   0.00168  -0.00011   1.87344
    R3        1.87355   0.00050  -0.00187   0.00168  -0.00011   1.87344
    A1        2.01898  -0.00001   0.00585   0.00202   0.00642   2.02540
    A2        2.01898   0.00019   0.00585   0.00115   0.00642   2.02540
    A3        2.01898   0.00019   0.00585   0.00115   0.00642   2.02540
    D1       -2.44134  -0.00048  -0.02172  -0.00652  -0.02870  -2.47004
         Item               Value     Threshold  Converged?
 Maximum Force            0.000501     0.000450     NO 
 RMS     Force            0.000387     0.000300     NO 
 Maximum Displacement     0.013133     0.001800     NO 
 RMS     Displacement     0.006197     0.001200     NO 
 Predicted change in Energy=-5.535542D-06
 GradGradGradGradGradGradGradGradGradGradGradGradGradGradGradGradGradGrad

                          Input orientation:                          
 ---------------------------------------------------------------------
 Center     Atomic      Atomic             Coordinates (Angstroms)
 Number     Number       Type             X           Y           Z
 ---------------------------------------------------------------------
      1          7           0        0.000000    0.000000    0.000214
      2          1           0        0.000000   -0.971051    0.199967
      3          1           0       -0.840955    0.485526    0.199967
      4          1           0        0.840955    0.485526    0.199967
 ---------------------------------------------------------------------
                    Distance matrix (angstroms):
                    1          2          3          4
     1  N    0.000000
     2  H    0.991384   0.000000
     3  H    0.991384   1.681910   0.000000
     4  H    0.991384   1.681910   1.681910   0.000000
 Stoichiometry    H3N
 Framework group  C3V[C3(N),3SGV(H)]
 Deg. of freedom     2
 Full point group                 C3V     NOp   6
 Largest Abelian subgroup         CS      NOp   2
 Largest concise Abelian subgroup CS      NOp   2
                         Standard orientation:                         
 ---------------------------------------------------------------------
 Center     Atomic      Atomic             Coordinates (Angstroms)
 Number     Number       Type             X           Y           Z
 ---------------------------------------------------------------------
      1          7           0        0.000000    0.000000    0.059926
      2          1           0        0.000000    0.971051   -0.139827
      3          1           0       -0.840955   -0.485526   -0.139827
      4          1           0        0.840955   -0.485526   -0.139827
 ---------------------------------------------------------------------
 Rotational constants (GHZ):         331.4620158         331.4620158         177.2664644
 Standard basis: 6-31G (6D, 7F)
 There are    11 symmetry adapted cartesian basis functions of A'  symmetry.
 There are     4 symmetry adapted cartesian basis functions of A"  symmetry.
 There are    11 symmetry adapted basis functions of A'  symmetry.
 There are     4 symmetry adapted basis functions of A"  symmetry.
    15 basis functions,    34 primitive gaussians,    15 cartesian basis functions
     5 alpha electrons        5 beta electrons
       nuclear repulsion energy        12.1531895943 Hartrees.
 NAtoms=    4 NActive=    4 NUniq=    2 SFac= 4.00D+00 NAtFMM=   60 NAOKFM=F Big=F
 Integral buffers will be    131072 words long.
 Raffenetti 1 integral format.
 Two-electron integral symmetry is turned on.
 One-electron integrals computed using PRISM.
 NBasis=    15 RedAO= T EigKep=  4.31D-02  NBF=    11     4
 NBsUse=    15 1.00D-06 EigRej= -1.00D+00 NBFU=    11     4
 Initial guess from the checkpoint file:  "D:\APPs\lihaibei\molecules-use\NH3.chk"
 B after Tr=     0.000000    0.000000    0.000000
         Rot=    1.000000    0.000000    0.000000    0.000000 Ang=   0.00 deg.
 Initial guess orbital symmetries:
       Occupied  (A1) (A1) (E) (E) (A1)
       Virtual   (A1) (E) (E) (E) (E) (A1) (A1) (E) (E) (A1)
 Keep R1 ints in memory in symmetry-blocked form, NReq=814150.
 Requested convergence on RMS density matrix=1.00D-08 within 128 cycles.
 Requested convergence on MAX density matrix=1.00D-06.
 Requested convergence on             energy=1.00D-06.
 No special actions if energy rises.
 SCF Done:  E(RHF) =  -56.1655209408     A.U. after    8 cycles
            NFock=  8  Conv=0.29D-08     -V/T= 1.9989
 Calling FoFJK, ICntrl=      2127 FMM=F ISym2X=1 I1Cent= 0 IOpClX= 0 NMat=1 NMatS=1 NMatT=0.
 ***** Axes restored to original set *****
 -------------------------------------------------------------------
 Center     Atomic                   Forces (Hartrees/Bohr)
 Number     Number              X              Y              Z
 -------------------------------------------------------------------
      1        7           0.000000000    0.000000000    0.000110528
      2        1           0.000000000   -0.000075732   -0.000036843
      3        1          -0.000065586    0.000037866   -0.000036843
      4        1           0.000065586    0.000037866   -0.000036843
 -------------------------------------------------------------------
 Cartesian Forces:  Max     0.000110528 RMS     0.000052832

 GradGradGradGradGradGradGradGradGradGradGradGradGradGradGradGradGradGrad
 Berny optimization.
 Using GEDIIS/GDIIS optimizer.
 FormGI is forming the generalized inverse of G from B-inverse, IUseBI=4.
 Internal  Forces:  Max     0.000082482 RMS     0.000056100
 Search for a local minimum.
 Step number   4 out of a maximum of   20
 All quantities printed in internal units (Hartrees-Bohrs-Radians)
 Mixed Optimization -- En-DIIS/RFO-DIIS
 Swapping is turned off.
 Update second derivatives using D2CorX and points    1    2    3    4
 DE= -9.12D-06 DEPred=-5.54D-06 R= 1.65D+00
 TightC=F SS=  1.41D+00  RLast= 3.08D-02 DXNew= 1.0072D+00 9.2345D-02
 Trust test= 1.65D+00 RLast= 3.08D-02 DXMaxT set to 5.99D-01
 The second derivative matrix:
                          R1        R2        R3        A1        A2
           R1           0.50182
           R2           0.02494   0.50182
           R3           0.02494   0.02494   0.50182
           A1           0.00384   0.00384   0.00384   0.11474
           A2           0.01176   0.01176   0.01176  -0.04383   0.11987
           A3           0.01176   0.01176   0.01176  -0.04383  -0.04013
           D1          -0.01105  -0.01105  -0.01105   0.00621   0.00250
                          A3        D1
           A3           0.11987
           D1           0.00250   0.01634
 ITU=  1  1  1  0
     Eigenvalues ---    0.01263   0.16000   0.16021   0.47688   0.47688
     Eigenvalues ---    0.55356
 En-DIIS/RFO-DIIS/Sim-DIIS IScMMF=       -3 using points:     4    3
 RFO step:  Lambda=-5.70746648D-07.
 DidBck=F Rises=F RFO-DIIS coefs:    1.21279   -0.21279
 Iteration  1 RMS(Cart)=  0.00130309 RMS(Int)=  0.00002644
 Iteration  2 RMS(Cart)=  0.00000254 RMS(Int)=  0.00002631
 Iteration  3 RMS(Cart)=  0.00000000 RMS(Int)=  0.00002631
 ClnCor:  largest displacement from symmetrization is 8.42D-07 for atom     4.
 Variable       Old X    -DE/DX   Delta X   Delta X   Delta X     New X
                                 (Linear)    (Quad)   (Total)
    R1        1.87344   0.00007  -0.00002  -0.00005  -0.00007   1.87337
    R2        1.87344   0.00007  -0.00002  -0.00005  -0.00007   1.87337
    R3        1.87344   0.00007  -0.00002  -0.00005  -0.00007   1.87337
    A1        2.02540   0.00000   0.00137   0.00000   0.00133   2.02672
    A2        2.02540   0.00003   0.00137   0.00000   0.00133   2.02672
    A3        2.02540   0.00003   0.00137   0.00000   0.00133   2.02672
    D1       -2.47004  -0.00008  -0.00611   0.00000  -0.00613  -2.47617
         Item               Value     Threshold  Converged?
 Maximum Force            0.000082     0.000450     YES
 RMS     Force            0.000056     0.000300     YES
 Maximum Displacement     0.002797     0.001800     NO 
 RMS     Displacement     0.001302     0.001200     NO 
 Predicted change in Energy=-2.853586D-07
 GradGradGradGradGradGradGradGradGradGradGradGradGradGradGradGradGradGrad

                          Input orientation:                          
 ---------------------------------------------------------------------
 Center     Atomic      Atomic             Coordinates (Angstroms)
 Number     Number       Type             X           Y           Z
 ---------------------------------------------------------------------
      1          7           0        0.000000    0.000000    0.001694
      2          1           0        0.000000   -0.971418    0.199474
      3          1           0       -0.841272    0.485709    0.199474
      4          1           0        0.841272    0.485709    0.199474
 ---------------------------------------------------------------------
                    Distance matrix (angstroms):
                    1          2          3          4
     1  N    0.000000
     2  H    0.991347   0.000000
     3  H    0.991347   1.682545   0.000000
     4  H    0.991347   1.682545   1.682545   0.000000
 Stoichiometry    H3N
 Framework group  C3V[C3(N),3SGV(H)]
 Deg. of freedom     2
 Full point group                 C3V     NOp   6
 Largest Abelian subgroup         CS      NOp   2
 Largest concise Abelian subgroup CS      NOp   2
                         Standard orientation:                         
 ---------------------------------------------------------------------
 Center     Atomic      Atomic             Coordinates (Angstroms)
 Number     Number       Type             X           Y           Z
 ---------------------------------------------------------------------
      1          7           0        0.000000    0.000000    0.059334
      2          1           0        0.000000    0.971418   -0.138446
      3          1           0       -0.841272   -0.485709   -0.138446
      4          1           0        0.841272   -0.485709   -0.138446
 ---------------------------------------------------------------------
 Rotational constants (GHZ):         331.6522702         331.6522702         177.1327083
 Standard basis: 6-31G (6D, 7F)
 There are    11 symmetry adapted cartesian basis functions of A'  symmetry.
 There are     4 symmetry adapted cartesian basis functions of A"  symmetry.
 There are    11 symmetry adapted basis functions of A'  symmetry.
 There are     4 symmetry adapted basis functions of A"  symmetry.
    15 basis functions,    34 primitive gaussians,    15 cartesian basis functions
     5 alpha electrons        5 beta electrons
       nuclear repulsion energy        12.1532474564 Hartrees.
 NAtoms=    4 NActive=    4 NUniq=    2 SFac= 4.00D+00 NAtFMM=   60 NAOKFM=F Big=F
 Integral buffers will be    131072 words long.
 Raffenetti 1 integral format.
 Two-electron integral symmetry is turned on.
 One-electron integrals computed using PRISM.
 NBasis=    15 RedAO= T EigKep=  4.31D-02  NBF=    11     4
 NBsUse=    15 1.00D-06 EigRej= -1.00D+00 NBFU=    11     4
 Initial guess from the checkpoint file:  "D:\APPs\lihaibei\molecules-use\NH3.chk"
 B after Tr=     0.000000    0.000000    0.000000
         Rot=    1.000000    0.000000    0.000000    0.000000 Ang=   0.00 deg.
 Initial guess orbital symmetries:
       Occupied  (A1) (A1) (E) (E) (A1)
       Virtual   (A1) (E) (E) (E) (E) (A1) (A1) (E) (E) (A1)
 Keep R1 ints in memory in symmetry-blocked form, NReq=814150.
 Requested convergence on RMS density matrix=1.00D-08 within 128 cycles.
 Requested convergence on MAX density matrix=1.00D-06.
 Requested convergence on             energy=1.00D-06.
 No special actions if energy rises.
 SCF Done:  E(RHF) =  -56.1655212505     A.U. after    7 cycles
            NFock=  7  Conv=0.85D-08     -V/T= 1.9989
 Calling FoFJK, ICntrl=      2127 FMM=F ISym2X=1 I1Cent= 0 IOpClX= 0 NMat=1 NMatS=1 NMatT=0.
 ***** Axes restored to original set *****
 -------------------------------------------------------------------
 Center     Atomic                   Forces (Hartrees/Bohr)
 Number     Number              X              Y              Z
 -------------------------------------------------------------------
      1        7           0.000000000    0.000000000    0.000011967
      2        1           0.000000000   -0.000003407   -0.000003989
      3        1          -0.000002950    0.000001703   -0.000003989
      4        1           0.000002950    0.000001703   -0.000003989
 -------------------------------------------------------------------
 Cartesian Forces:  Max     0.000011967 RMS     0.000004338

 GradGradGradGradGradGradGradGradGradGradGradGradGradGradGradGradGradGrad
 Berny optimization.
 Using GEDIIS/GDIIS optimizer.
 FormGI is forming the generalized inverse of G from B-inverse, IUseBI=4.
 Internal  Forces:  Max     0.000007376 RMS     0.000003552
 Search for a local minimum.
 Step number   5 out of a maximum of   20
 All quantities printed in internal units (Hartrees-Bohrs-Radians)
 Mixed Optimization -- En-DIIS/RFO-DIIS
 Swapping is turned off.
 Update second derivatives using D2CorX and points    1    2    3    4    5
 DE= -3.10D-07 DEPred=-2.85D-07 R= 1.09D+00
 Trust test= 1.09D+00 RLast= 6.55D-03 DXMaxT set to 5.99D-01
 The second derivative matrix:
                          R1        R2        R3        A1        A2
           R1           0.50456
           R2           0.02768   0.50456
           R3           0.02768   0.02768   0.50456
           A1           0.00420   0.00420   0.00420   0.11475
           A2           0.01144   0.01144   0.01144  -0.04357   0.12018
           A3           0.01144   0.01144   0.01144  -0.04357  -0.03982
           D1          -0.01092  -0.01092  -0.01092   0.00607   0.00305
                          A3        D1
           A3           0.12018
           D1           0.00305   0.01526
 ITU=  0  1  1  1  0
     Eigenvalues ---    0.01149   0.16000   0.16027   0.47688   0.47688
     Eigenvalues ---    0.56164
 En-DIIS/RFO-DIIS/Sim-DIIS IScMMF=       -3 using points:     5    4    3
 RFO step:  Lambda=-1.24976764D-09.
 DIIS inversion failure, remove point   3.
 RFO-DIIS uses    2 points instead of    3
 DidBck=F Rises=F RFO-DIIS coefs:    1.10221   -0.10221    0.00000
 Iteration  1 RMS(Cart)=  0.00013186 RMS(Int)=  0.00000052
 Iteration  2 RMS(Cart)=  0.00000003 RMS(Int)=  0.00000052
 ClnCor:  largest displacement from symmetrization is 1.75D-07 for atom     4.
 Variable       Old X    -DE/DX   Delta X   Delta X   Delta X     New X
                                 (Linear)    (Quad)   (Total)
    R1        1.87337   0.00000  -0.00001  -0.00001  -0.00001   1.87336
    R2        1.87337   0.00000  -0.00001  -0.00001  -0.00001   1.87336
    R3        1.87337   0.00000  -0.00001  -0.00001  -0.00001   1.87336
    A1        2.02672   0.00000   0.00014   0.00000   0.00013   2.02686
    A2        2.02672   0.00000   0.00014   0.00000   0.00013   2.02686
    A3        2.02672   0.00000   0.00014   0.00000   0.00013   2.02686
    D1       -2.47617  -0.00001  -0.00063   0.00000  -0.00063  -2.47680
         Item               Value     Threshold  Converged?
 Maximum Force            0.000007     0.000450     YES
 RMS     Force            0.000004     0.000300     YES
 Maximum Displacement     0.000287     0.001800     YES
 RMS     Displacement     0.000132     0.001200     YES
 Predicted change in Energy=-2.611766D-09
 Optimization completed.
    -- Stationary point found.
                           ----------------------------
                           !   Optimized Parameters   !
                           ! (Angstroms and Degrees)  !
 --------------------------                            --------------------------
 ! Name  Definition              Value          Derivative Info.                !
 --------------------------------------------------------------------------------
 ! R1    R(1,2)                  0.9913         -DE/DX =    0.0                 !
 ! R2    R(1,3)                  0.9913         -DE/DX =    0.0                 !
 ! R3    R(1,4)                  0.9913         -DE/DX =    0.0                 !
 ! A1    A(2,1,3)              116.1228         -DE/DX =    0.0                 !
 ! A2    A(2,1,4)              116.1228         -DE/DX =    0.0                 !
 ! A3    A(3,1,4)              116.1228         -DE/DX =    0.0                 !
 ! D1    D(2,1,4,3)           -141.8744         -DE/DX =    0.0                 !
 --------------------------------------------------------------------------------
 GradGradGradGradGradGradGradGradGradGradGradGradGradGradGradGradGradGrad

                          Input orientation:                          
 ---------------------------------------------------------------------
 Center     Atomic      Atomic             Coordinates (Angstroms)
 Number     Number       Type             X           Y           Z
 ---------------------------------------------------------------------
      1          7           0        0.000000    0.000000    0.001694
      2          1           0        0.000000   -0.971418    0.199474
      3          1           0       -0.841272    0.485709    0.199474
      4          1           0        0.841272    0.485709    0.199474
 ---------------------------------------------------------------------
                    Distance matrix (angstroms):
                    1          2          3          4
     1  N    0.000000
     2  H    0.991347   0.000000
     3  H    0.991347   1.682545   0.000000
     4  H    0.991347   1.682545   1.682545   0.000000
 Stoichiometry    H3N
 Framework group  C3V[C3(N),3SGV(H)]
 Deg. of freedom     2
 Full point group                 C3V     NOp   6
 Largest Abelian subgroup         CS      NOp   2
 Largest concise Abelian subgroup CS      NOp   2
                         Standard orientation:                         
 ---------------------------------------------------------------------
 Center     Atomic      Atomic             Coordinates (Angstroms)
 Number     Number       Type             X           Y           Z
 ---------------------------------------------------------------------
      1          7           0        0.000000    0.000000    0.059334
      2          1           0        0.000000    0.971418   -0.138446
      3          1           0       -0.841272   -0.485709   -0.138446
      4          1           0        0.841272   -0.485709   -0.138446
 ---------------------------------------------------------------------
 Rotational constants (GHZ):         331.6522702         331.6522702         177.1327083

 **********************************************************************

            Population analysis using the SCF Density.

 **********************************************************************

 Orbital symmetries:
       Occupied  (A1) (A1) (E) (E) (A1)
       Virtual   (A1) (E) (E) (E) (E) (A1) (A1) (E) (E) (A1)
 The electronic state is 1-A1.
 Alpha  occ. eigenvalues --  -15.51784  -1.13069  -0.64115  -0.64115  -0.39105
 Alpha virt. eigenvalues --    0.22898   0.32816   0.32816   0.95626   0.95626
 Alpha virt. eigenvalues --    0.97312   1.15778   1.28262   1.28262   1.45390
          Condensed to atoms (all electrons):
               1          2          3          4
     1  N    6.963628   0.339518   0.339518   0.339518
     2  H    0.339518   0.385154  -0.026033  -0.026033
     3  H    0.339518  -0.026033   0.385154  -0.026033
     4  H    0.339518  -0.026033  -0.026033   0.385154
 Mulliken charges:
               1
     1  N   -0.982181
     2  H    0.327394
     3  H    0.327394
     4  H    0.327394
 Sum of Mulliken charges =   0.00000
 Mulliken charges with hydrogens summed into heavy atoms:
               1
     1  N    0.000000
 Electronic spatial extent (au):  <R**2>=             25.7087
 Charge=              0.0000 electrons
 Dipole moment (field-independent basis, Debye):
    X=              0.0000    Y=              0.0000    Z=             -1.3833  Tot=              1.3833
 Quadrupole moment (field-independent basis, Debye-Ang):
   XX=             -5.6613   YY=             -5.6613   ZZ=             -9.2643
   XY=              0.0000   XZ=              0.0000   YZ=              0.0000
 Traceless Quadrupole moment (field-independent basis, Debye-Ang):
   XX=              1.2010   YY=              1.2010   ZZ=             -2.4020
   XY=              0.0000   XZ=              0.0000   YZ=              0.0000
 Octapole moment (field-independent basis, Debye-Ang**2):
  XXX=              0.0000  YYY=              1.0539  ZZZ=             -1.1990  XYY=              0.0000
  XXY=             -1.0539  XXZ=             -0.6221  XZZ=              0.0000  YZZ=              0.0000
  YYZ=             -0.6221  XYZ=              0.0000
 Hexadecapole moment (field-independent basis, Debye-Ang**3):
 XXXX=             -8.6115 YYYY=             -8.6115 ZZZZ=             -9.1295 XXXY=              0.0000
 XXXZ=              0.0000 YYYX=              0.0000 YYYZ=             -0.1922 ZZZX=              0.0000
 ZZZY=              0.0000 XXYY=             -2.8705 XXZZ=             -3.2093 YYZZ=             -3.2093
 XXYZ=              0.1922 YYXZ=              0.0000 ZZXY=              0.0000
 N-N= 1.215324745640D+01 E-N=-1.562192689914D+02  KE= 5.622547952921D+01
 Symmetry A'   KE= 5.361110244878D+01
 Symmetry A"   KE= 2.614377080428D+00
 1|1|UNPC-WIN10-2T0259|FOpt|RHF|6-31G|H3N1|SDDX|16-Apr-2026|0||# opt hf
 /6-31g geom=connectivity||Title Card Required||0,1|N,0.,0.,0.001694191
 4|H,-0.0000000026,-0.9714177159,0.1994738654|H,-0.8412724183,0.4857088
 602,0.1994738654|H,0.8412724209,0.4857088557,0.1994738654||Version=EM6
 4W-G16RevB.01|State=1-A1|HF=-56.1655213|RMSD=8.477e-009|RMSF=4.338e-00
 6|Dipole=0.,0.,0.5442426|Quadrupole=0.8929231,0.8929231,-1.7858462,0.,
 0.,0.|PG=C03V [C3(N1),3SGV(H1)]||@


 Everywhere is walking distance if you have the time.
                                    -- Steven Wright
 Job cpu time:       0 days  0 hours  0 minutes  6.0 seconds.
 Elapsed time:       0 days  0 hours  0 minutes  3.2 seconds.
 File lengths (MBytes):  RWF=      6 Int=      0 D2E=      0 Chk=      1 Scr=      1
 Normal termination of Gaussian 16 at Thu Apr 16 10:49:49 2026.
