 Entering Link 1 = C:\G16W\l1.exe PID=     10168.
  
 Copyright (c) 1988-2017, Gaussian, Inc.  All Rights Reserved.
  
 This is part of the Gaussian(R) 16 program.  It is based on
 the Gaussian(R) 09 system (copyright 2009, Gaussian, Inc.),
 the Gaussian(R) 03 system (copyright 2003, Gaussian, Inc.),
 the Gaussian(R) 98 system (copyright 1998, Gaussian, Inc.),
 the Gaussian(R) 94 system (copyright 1995, Gaussian, Inc.),
 the Gaussian 92(TM) system (copyright 1992, Gaussian, Inc.),
 the Gaussian 90(TM) system (copyright 1990, Gaussian, Inc.),
 the Gaussian 88(TM) system (copyright 1988, Gaussian, Inc.),
 the Gaussian 86(TM) system (copyright 1986, Carnegie Mellon
 University), and the Gaussian 82(TM) system (copyright 1983,
 Carnegie Mellon University). Gaussian is a federally registered
 trademark of Gaussian, Inc.
  
 This software contains proprietary and confidential information,
 including trade secrets, belonging to Gaussian, Inc.
  
 This software is provided under written license and may be
 used, copied, transmitted, or stored only in accord with that
 written license.
  
 The following legend is applicable only to US Government
 contracts under FAR:
  
                    RESTRICTED RIGHTS LEGEND
  
 Use, reproduction and disclosure by the US Government is
 subject to restrictions as set forth in subparagraphs (a)
 and (c) of the Commercial Computer Software - Restricted
 Rights clause in FAR 52.227-19.
  
 Gaussian, Inc.
 340 Quinnipiac St., Bldg. 40, Wallingford CT 06492
  
  
 ---------------------------------------------------------------
 Warning -- This program may not be used in any manner that
 competes with the business of Gaussian, Inc. or will provide
 assistance to any competitor of Gaussian, Inc.  The licensee
 of this program is prohibited from giving any competitor of
 Gaussian, Inc. access to this program.  By using this program,
 the user acknowledges that Gaussian, Inc. is engaged in the
 business of creating and licensing software in the field of
 computational chemistry and represents and warrants to the
 licensee that it is not a competitor of Gaussian, Inc. and that
 it will not use this program in any manner prohibited above.
 ---------------------------------------------------------------
  

 Cite this work as:
 Gaussian 16, Revision B.01,
 M. J. Frisch, G. W. Trucks, H. B. Schlegel, G. E. Scuseria, 
 M. A. Robb, J. R. Cheeseman, G. Scalmani, V. Barone, 
 G. A. Petersson, H. Nakatsuji, X. Li, M. Caricato, A. V. Marenich, 
 J. Bloino, B. G. Janesko, R. Gomperts, B. Mennucci, H. P. Hratchian, 
 J. V. Ortiz, A. F. Izmaylov, J. L. Sonnenberg, D. Williams-Young, 
 F. Ding, F. Lipparini, F. Egidi, J. Goings, B. Peng, A. Petrone, 
 T. Henderson, D. Ranasinghe, V. G. Zakrzewski, J. Gao, N. Rega, 
 G. Zheng, W. Liang, M. Hada, M. Ehara, K. Toyota, R. Fukuda, 
 J. Hasegawa, M. Ishida, T. Nakajima, Y. Honda, O. Kitao, H. Nakai, 
 T. Vreven, K. Throssell, J. A. Montgomery, Jr., J. E. Peralta, 
 F. Ogliaro, M. J. Bearpark, J. J. Heyd, E. N. Brothers, K. N. Kudin, 
 V. N. Staroverov, T. A. Keith, R. Kobayashi, J. Normand, 
 K. Raghavachari, A. P. Rendell, J. C. Burant, S. S. Iyengar, 
 J. Tomasi, M. Cossi, J. M. Millam, M. Klene, C. Adamo, R. Cammi, 
 J. W. Ochterski, R. L. Martin, K. Morokuma, O. Farkas, 
 J. B. Foresman, and D. J. Fox, Gaussian, Inc., Wallingford CT, 2016.
 
 ******************************************
 Gaussian 16:  EM64W-G16RevB.01 16-Dec-2017
                16-Apr-2026 
 ******************************************
 %chk=D:\APPs\lihaibei\molecules-use\overlapped-CH3CH3.chk
 ----------------------------
 # hf/6-31g geom=connectivity
 ----------------------------
 1/38=1,57=2,172=1/1;
 2/12=2,17=6,18=5,40=1/2;
 3/5=1,6=6,11=9,25=1,30=1/1,2,3;
 4//1;
 5/5=2,38=5/2;
 6/7=2,8=2,9=2,10=2,28=1/1;
 99/5=1,9=1/99;
 -------------------
 Title Card Required
 -------------------
 Symbolic Z-matrix:
 Charge =  0 Multiplicity = 1
 C                     0.        0.       -0.75019 
 C                     0.        0.        0.75019 
 H                    -0.90493  -0.52246  -1.1453 
 H                     0.        1.04492  -1.1453 
 H                     0.90493  -0.52246  -1.1453 
 H                     0.        1.04492   1.1453 
 H                    -0.90493  -0.52246   1.1453 
 H                     0.90493  -0.52246   1.1453 
 
                          Input orientation:                          
 ---------------------------------------------------------------------
 Center     Atomic      Atomic             Coordinates (Angstroms)
 Number     Number       Type             X           Y           Z
 ---------------------------------------------------------------------
      1          6           0        0.000000    0.000000   -0.750188
      2          6           0        0.000000    0.000000    0.750188
      3          1           0       -0.904928   -0.522461   -1.145301
      4          1           0        0.000000    1.044921   -1.145301
      5          1           0        0.904928   -0.522461   -1.145301
      6          1           0        0.000000    1.044921    1.145301
      7          1           0       -0.904928   -0.522461    1.145301
      8          1           0        0.904928   -0.522461    1.145301
 ---------------------------------------------------------------------
                    Distance matrix (angstroms):
                    1          2          3          4          5
     1  C    0.000000
     2  C    1.500377   0.000000
     3  H    1.117128   2.164426   0.000000
     4  H    1.117128   2.164426   1.809856   0.000000
     5  H    1.117128   2.164426   1.809856   1.809856   0.000000
     6  H    2.164426   1.117128   2.919322   2.290602   2.919322
     7  H    2.164426   1.117128   2.290602   2.919322   2.919322
     8  H    2.164426   1.117128   2.919322   2.919322   2.290602
                    6          7          8
     6  H    0.000000
     7  H    1.809856   0.000000
     8  H    1.809856   1.809856   0.000000
 Stoichiometry    C2H6
 Framework group  D3H[C3(C.C),3SGV(H2)]
 Deg. of freedom     3
 Full point group                 D3H     NOp  12
 Largest Abelian subgroup         C2V     NOp   4
 Largest concise Abelian subgroup C2V     NOp   4
                         Standard orientation:                         
 ---------------------------------------------------------------------
 Center     Atomic      Atomic             Coordinates (Angstroms)
 Number     Number       Type             X           Y           Z
 ---------------------------------------------------------------------
      1          6           0        0.000000    0.000000    0.750188
      2          6           0        0.000000    0.000000   -0.750188
      3          1           0        0.000000    1.044921    1.145301
      4          1           0       -0.904928   -0.522461    1.145301
      5          1           0        0.904928   -0.522461    1.145301
      6          1           0       -0.904928   -0.522461   -1.145301
      7          1           0        0.000000    1.044921   -1.145301
      8          1           0        0.904928   -0.522461   -1.145301
 ---------------------------------------------------------------------
 Rotational constants (GHZ):          76.5444643          20.4277196          20.4277196
 Standard basis: 6-31G (6D, 7F)
 There are    11 symmetry adapted cartesian basis functions of A1  symmetry.
 There are     4 symmetry adapted cartesian basis functions of A2  symmetry.
 There are     4 symmetry adapted cartesian basis functions of B1  symmetry.
 There are    11 symmetry adapted cartesian basis functions of B2  symmetry.
 There are    11 symmetry adapted basis functions of A1  symmetry.
 There are     4 symmetry adapted basis functions of A2  symmetry.
 There are     4 symmetry adapted basis functions of B1  symmetry.
 There are    11 symmetry adapted basis functions of B2  symmetry.
    30 basis functions,    68 primitive gaussians,    30 cartesian basis functions
     9 alpha electrons        9 beta electrons
       nuclear repulsion energy        42.0866345799 Hartrees.
 NAtoms=    8 NActive=    8 NUniq=    2 SFac= 4.00D+00 NAtFMM=   60 NAOKFM=F Big=F
 Integral buffers will be    131072 words long.
 Raffenetti 1 integral format.
 Two-electron integral symmetry is turned on.
 One-electron integrals computed using PRISM.
 NBasis=    30 RedAO= T EigKep=  9.34D-03  NBF=    11     4     4    11
 NBsUse=    30 1.00D-06 EigRej= -1.00D+00 NBFU=    11     4     4    11
 ExpMin= 1.61D-01 ExpMax= 3.05D+03 ExpMxC= 4.57D+02 IAcc=3 IRadAn=         5 AccDes= 0.00D+00
 Harris functional with IExCor=  205 and IRadAn=       5 diagonalized for initial guess.
 HarFok:  IExCor=  205 AccDes= 0.00D+00 IRadAn=         5 IDoV= 1 UseB2=F ITyADJ=14
 ICtDFT=  3500011 ScaDFX=  1.000000  1.000000  1.000000  1.000000
 FoFCou: FMM=F IPFlag=           0 FMFlag=      100000 FMFlg1=           0
         NFxFlg=           0 DoJE=T BraDBF=F KetDBF=T FulRan=T
         wScrn=  0.000000 ICntrl=       500 IOpCl=  0 I1Cent=   200000004 NGrid=           0
         NMat0=    1 NMatS0=      1 NMatT0=    0 NMatD0=    1 NMtDS0=    0 NMtDT0=    0
 Petite list used in FoFCou.
 Initial guess orbital symmetries:
       Occupied  (A2") (A1') (A1') (A2") (E') (E') (A1') (E") (E")
       Virtual   (A1') (E') (E') (A2") (A2") (E") (E") (A1') (E')
                 (E') (A2") (E") (E") (E') (E') (A1') (A2") (E")
                 (E") (A1') (A2")
 The electronic state of the initial guess is 1-A1'.
 Keep R1 ints in memory in symmetry-blocked form, NReq=927606.
 Requested convergence on RMS density matrix=1.00D-08 within 128 cycles.
 Requested convergence on MAX density matrix=1.00D-06.
 Requested convergence on             energy=1.00D-06.
 No special actions if energy rises.
 SCF Done:  E(RHF) =  -79.1871321402     A.U. after    9 cycles
            NFock=  9  Conv=0.93D-09     -V/T= 2.0005

 **********************************************************************

            Population analysis using the SCF Density.

 **********************************************************************

 Orbital symmetries:
       Occupied  (A1') (A2") (A1') (A2") (E') (E') (A1') (E") (E")
       Virtual   (A1') (E') (E') (A2") (E") (E") (A2") (A1') (E')
                 (E') (E") (E") (A2") (E') (E') (A1') (A2") (E")
                 (E") (A1') (A2")
 The electronic state is 1-A1'.
 Alpha  occ. eigenvalues --  -11.21930 -11.21867  -1.02315  -0.82908  -0.59588
 Alpha  occ. eigenvalues --   -0.59588  -0.51032  -0.47162  -0.47162
 Alpha virt. eigenvalues --    0.23476   0.26767   0.26767   0.29843   0.38872
 Alpha virt. eigenvalues --    0.38872   0.41526   0.72616   0.77020   0.77020
 Alpha virt. eigenvalues --    0.91828   0.91828   0.97500   1.16402   1.16402
 Alpha virt. eigenvalues --    1.18431   1.22691   1.23253   1.23253   1.27348
 Alpha virt. eigenvalues --    1.73238
          Condensed to atoms (all electrons):
               1          2          3          4          5          6
     1  C    5.200395   0.220430   0.391894   0.391894   0.391894  -0.045317
     2  C    0.220430   5.200395  -0.045317  -0.045317  -0.045317   0.391894
     3  H    0.391894  -0.045317   0.558733  -0.027830  -0.027830   0.002952
     4  H    0.391894  -0.045317  -0.027830   0.558733  -0.027830  -0.009071
     5  H    0.391894  -0.045317  -0.027830  -0.027830   0.558733   0.002952
     6  H   -0.045317   0.391894   0.002952  -0.009071   0.002952   0.558733
     7  H   -0.045317   0.391894  -0.009071   0.002952   0.002952  -0.027830
     8  H   -0.045317   0.391894   0.002952   0.002952  -0.009071  -0.027830
               7          8
     1  C   -0.045317  -0.045317
     2  C    0.391894   0.391894
     3  H   -0.009071   0.002952
     4  H    0.002952   0.002952
     5  H    0.002952  -0.009071
     6  H   -0.027830  -0.027830
     7  H    0.558733  -0.027830
     8  H   -0.027830   0.558733
 Mulliken charges:
               1
     1  C   -0.460556
     2  C   -0.460556
     3  H    0.153519
     4  H    0.153519
     5  H    0.153519
     6  H    0.153519
     7  H    0.153519
     8  H    0.153519
 Sum of Mulliken charges =   0.00000
 Mulliken charges with hydrogens summed into heavy atoms:
               1
     1  C    0.000000
     2  C    0.000000
 Electronic spatial extent (au):  <R**2>=            109.9512
 Charge=              0.0000 electrons
 Dipole moment (field-independent basis, Debye):
    X=              0.0000    Y=              0.0000    Z=              0.0000  Tot=              0.0000
 Quadrupole moment (field-independent basis, Debye-Ang):
   XX=            -15.0733   YY=            -15.0733   ZZ=            -16.0344
   XY=              0.0000   XZ=              0.0000   YZ=              0.0000
 Traceless Quadrupole moment (field-independent basis, Debye-Ang):
   XX=              0.3204   YY=              0.3204   ZZ=             -0.6407
   XY=              0.0000   XZ=              0.0000   YZ=              0.0000
 Octapole moment (field-independent basis, Debye-Ang**2):
  XXX=              0.0000  YYY=              1.1017  ZZZ=              0.0000  XYY=              0.0000
  XXY=             -1.1017  XXZ=              0.0000  XZZ=              0.0000  YZZ=              0.0000
  YYZ=              0.0000  XYZ=              0.0000
 Hexadecapole moment (field-independent basis, Debye-Ang**3):
 XXXX=            -29.9748 YYYY=            -29.9748 ZZZZ=            -93.5177 XXXY=              0.0000
 XXXZ=              0.0000 YYYX=              0.0000 YYYZ=              0.0000 ZZZX=              0.0000
 ZZZY=              0.0000 XXYY=             -9.9916 XXZZ=            -19.5924 YYZZ=            -19.5924
 XXYZ=              0.0000 YYXZ=              0.0000 ZZXY=              0.0000
 N-N= 4.208663457987D+01 E-N=-2.678252683990D+02  KE= 7.914876728317D+01
 Symmetry A1   KE= 3.879732667393D+01
 Symmetry A2   KE= 2.036118987602D+00
 Symmetry B1   KE= 1.740142922794D+00
 Symmetry B2   KE= 3.657517869884D+01
 1|1|UNPC-WIN10-2T0259|SP|RHF|6-31G|C2H6|SDDX|16-Apr-2026|0||# hf/6-31g
  geom=connectivity||Title Card Required||0,1|C,0,0.,0.,-0.75018826|C,0
 ,0.,0.,0.75018826|H,0,-0.90492824,-0.52246056,-1.14530118|H,0,0.,1.044
 92112,-1.14530118|H,0,0.90492824,-0.52246056,-1.14530118|H,0,0.,1.0449
 2112,1.14530118|H,0,-0.90492824,-0.52246056,1.14530118|H,0,0.90492824,
 -0.52246056,1.14530118||Version=EM64W-G16RevB.01|State=1-A1'|HF=-79.18
 71321|RMSD=9.284e-010|Dipole=0.,0.,0.|Quadrupole=0.2381783,0.2381783,-
 0.4763567,0.,0.,0.|PG=D03H [C3(C1.C1),3SGV(H2)]||@


 There ain't no surer way to find out whether you
 like people or hate them than to travel with them.
                                     -- Mark Twain
 Job cpu time:       0 days  0 hours  0 minutes  1.0 seconds.
 Elapsed time:       0 days  0 hours  0 minutes  0.7 seconds.
 File lengths (MBytes):  RWF=      6 Int=      0 D2E=      0 Chk=      1 Scr=      1
 Normal termination of Gaussian 16 at Thu Apr 16 10:53:59 2026.
