 Entering Link 1 = C:\G16W\l1.exe PID=      3956.
  
 Copyright (c) 1988-2017, Gaussian, Inc.  All Rights Reserved.
  
 This is part of the Gaussian(R) 16 program.  It is based on
 the Gaussian(R) 09 system (copyright 2009, Gaussian, Inc.),
 the Gaussian(R) 03 system (copyright 2003, Gaussian, Inc.),
 the Gaussian(R) 98 system (copyright 1998, Gaussian, Inc.),
 the Gaussian(R) 94 system (copyright 1995, Gaussian, Inc.),
 the Gaussian 92(TM) system (copyright 1992, Gaussian, Inc.),
 the Gaussian 90(TM) system (copyright 1990, Gaussian, Inc.),
 the Gaussian 88(TM) system (copyright 1988, Gaussian, Inc.),
 the Gaussian 86(TM) system (copyright 1986, Carnegie Mellon
 University), and the Gaussian 82(TM) system (copyright 1983,
 Carnegie Mellon University). Gaussian is a federally registered
 trademark of Gaussian, Inc.
  
 This software contains proprietary and confidential information,
 including trade secrets, belonging to Gaussian, Inc.
  
 This software is provided under written license and may be
 used, copied, transmitted, or stored only in accord with that
 written license.
  
 The following legend is applicable only to US Government
 contracts under FAR:
  
                    RESTRICTED RIGHTS LEGEND
  
 Use, reproduction and disclosure by the US Government is
 subject to restrictions as set forth in subparagraphs (a)
 and (c) of the Commercial Computer Software - Restricted
 Rights clause in FAR 52.227-19.
  
 Gaussian, Inc.
 340 Quinnipiac St., Bldg. 40, Wallingford CT 06492
  
  
 ---------------------------------------------------------------
 Warning -- This program may not be used in any manner that
 competes with the business of Gaussian, Inc. or will provide
 assistance to any competitor of Gaussian, Inc.  The licensee
 of this program is prohibited from giving any competitor of
 Gaussian, Inc. access to this program.  By using this program,
 the user acknowledges that Gaussian, Inc. is engaged in the
 business of creating and licensing software in the field of
 computational chemistry and represents and warrants to the
 licensee that it is not a competitor of Gaussian, Inc. and that
 it will not use this program in any manner prohibited above.
 ---------------------------------------------------------------
  

 Cite this work as:
 Gaussian 16, Revision B.01,
 M. J. Frisch, G. W. Trucks, H. B. Schlegel, G. E. Scuseria, 
 M. A. Robb, J. R. Cheeseman, G. Scalmani, V. Barone, 
 G. A. Petersson, H. Nakatsuji, X. Li, M. Caricato, A. V. Marenich, 
 J. Bloino, B. G. Janesko, R. Gomperts, B. Mennucci, H. P. Hratchian, 
 J. V. Ortiz, A. F. Izmaylov, J. L. Sonnenberg, D. Williams-Young, 
 F. Ding, F. Lipparini, F. Egidi, J. Goings, B. Peng, A. Petrone, 
 T. Henderson, D. Ranasinghe, V. G. Zakrzewski, J. Gao, N. Rega, 
 G. Zheng, W. Liang, M. Hada, M. Ehara, K. Toyota, R. Fukuda, 
 J. Hasegawa, M. Ishida, T. Nakajima, Y. Honda, O. Kitao, H. Nakai, 
 T. Vreven, K. Throssell, J. A. Montgomery, Jr., J. E. Peralta, 
 F. Ogliaro, M. J. Bearpark, J. J. Heyd, E. N. Brothers, K. N. Kudin, 
 V. N. Staroverov, T. A. Keith, R. Kobayashi, J. Normand, 
 K. Raghavachari, A. P. Rendell, J. C. Burant, S. S. Iyengar, 
 J. Tomasi, M. Cossi, J. M. Millam, M. Klene, C. Adamo, R. Cammi, 
 J. W. Ochterski, R. L. Martin, K. Morokuma, O. Farkas, 
 J. B. Foresman, and D. J. Fox, Gaussian, Inc., Wallingford CT, 2016.
 
 ******************************************
 Gaussian 16:  EM64W-G16RevB.01 16-Dec-2017
                16-Apr-2026 
 ******************************************
 %chk=D:\APPs\lihaibei\molecules-use\SF6.chk
 --------------------------------
 # opt hf/6-31g geom=connectivity
 --------------------------------
 1/18=20,19=15,38=1,57=2/1,3;
 2/9=110,12=2,17=6,18=5,40=1/2;
 3/5=1,6=6,11=9,25=1,30=1,71=1/1,2,3;
 4//1;
 5/5=2,38=5/2;
 6/7=2,8=2,9=2,10=2,28=1/1;
 7//1,2,3,16;
 1/18=20,19=15/3(2);
 2/9=110/2;
 99//99;
 2/9=110/2;
 3/5=1,6=6,11=9,25=1,30=1,71=1/1,2,3;
 4/5=5,16=3,69=1/1;
 5/5=2,38=5/2;
 7//1,2,3,16;
 1/18=20,19=15/3(-5);
 2/9=110/2;
 6/7=2,8=2,9=2,10=2,19=2,28=1/1;
 99/9=1/99;
 -------------------
 Title Card Required
 -------------------
 Symbolic Z-matrix:
 Charge =  0 Multiplicity = 1
 S                     0.        0.        0. 
 F                     0.        0.        1.59 
 F                     0.        0.       -1.59 
 F                     0.        1.59      0. 
 F                    -1.59      0.        0. 
 F                     1.59      0.        0. 
 F                     0.       -1.59      0. 
 

 GradGradGradGradGradGradGradGradGradGradGradGradGradGradGradGradGradGrad
 Berny optimization.
 Initialization pass.
                           ----------------------------
                           !    Initial Parameters    !
                           ! (Angstroms and Degrees)  !
 --------------------------                            --------------------------
 ! Name  Definition              Value          Derivative Info.                !
 --------------------------------------------------------------------------------
 ! R1    R(1,2)                  1.59           estimate D2E/DX2                !
 ! R2    R(1,3)                  1.59           estimate D2E/DX2                !
 ! R3    R(1,4)                  1.59           estimate D2E/DX2                !
 ! R4    R(1,5)                  1.59           estimate D2E/DX2                !
 ! R5    R(1,6)                  1.59           estimate D2E/DX2                !
 ! R6    R(1,7)                  1.59           estimate D2E/DX2                !
 ! A1    A(2,1,4)               90.0            estimate D2E/DX2                !
 ! A2    A(2,1,5)               90.0            estimate D2E/DX2                !
 ! A3    A(2,1,6)               90.0            estimate D2E/DX2                !
 ! A4    A(2,1,7)               90.0            estimate D2E/DX2                !
 ! A5    A(3,1,4)               90.0            estimate D2E/DX2                !
 ! A6    A(3,1,5)               90.0            estimate D2E/DX2                !
 ! A7    A(3,1,6)               90.0            estimate D2E/DX2                !
 ! A8    A(3,1,7)               90.0            estimate D2E/DX2                !
 ! A9    A(4,1,5)               90.0            estimate D2E/DX2                !
 ! A10   A(4,1,6)               90.0            estimate D2E/DX2                !
 ! A11   A(5,1,7)               90.0            estimate D2E/DX2                !
 ! A12   A(6,1,7)               90.0            estimate D2E/DX2                !
 ! A13   L(2,1,3,4,-1)         180.0            estimate D2E/DX2                !
 ! A14   L(4,1,7,2,-1)         180.0            estimate D2E/DX2                !
 ! A15   L(5,1,6,2,-1)         180.0            estimate D2E/DX2                !
 ! A16   L(2,1,3,4,-2)         180.0            estimate D2E/DX2                !
 ! A17   L(4,1,7,2,-2)         180.0            estimate D2E/DX2                !
 ! A18   L(5,1,6,2,-2)         180.0            estimate D2E/DX2                !
 ! D1    D(2,1,5,4)             90.0            estimate D2E/DX2                !
 ! D2    D(2,1,6,4)            -90.0            estimate D2E/DX2                !
 ! D3    D(2,1,7,5)             90.0            estimate D2E/DX2                !
 ! D4    D(2,1,7,6)            -90.0            estimate D2E/DX2                !
 ! D5    D(3,1,5,4)            -90.0            estimate D2E/DX2                !
 ! D6    D(3,1,6,4)             90.0            estimate D2E/DX2                !
 ! D7    D(3,1,7,5)            -90.0            estimate D2E/DX2                !
 ! D8    D(3,1,7,6)             90.0            estimate D2E/DX2                !
 --------------------------------------------------------------------------------
 Trust Radius=3.00D-01 FncErr=1.00D-07 GrdErr=1.00D-07 EigMax=2.50D+02 EigMin=1.00D-04
 Number of steps in this run=     42 maximum allowed number of steps=    100.
 GradGradGradGradGradGradGradGradGradGradGradGradGradGradGradGradGradGrad

                          Input orientation:                          
 ---------------------------------------------------------------------
 Center     Atomic      Atomic             Coordinates (Angstroms)
 Number     Number       Type             X           Y           Z
 ---------------------------------------------------------------------
      1         16           0        0.000000    0.000000    0.000000
      2          9           0        0.000000    0.000000    1.590000
      3          9           0        0.000000    0.000000   -1.590000
      4          9           0        0.000000    1.590000    0.000000
      5          9           0       -1.590000    0.000000    0.000000
      6          9           0        1.590000    0.000000    0.000000
      7          9           0        0.000000   -1.590000    0.000000
 ---------------------------------------------------------------------
                    Distance matrix (angstroms):
                    1          2          3          4          5
     1  S    0.000000
     2  F    1.590000   0.000000
     3  F    1.590000   3.180000   0.000000
     4  F    1.590000   2.248600   2.248600   0.000000
     5  F    1.590000   2.248600   2.248600   2.248600   0.000000
     6  F    1.590000   2.248600   2.248600   2.248600   3.180000
     7  F    1.590000   2.248600   2.248600   3.180000   2.248600
                    6          7
     6  F    0.000000
     7  F    2.248600   0.000000
 Stoichiometry    F6S
 Framework group  OH[O(S),3C4(F.F)]
 Deg. of freedom     1
 Full point group                 OH      NOp  48
 Largest Abelian subgroup         D2H     NOp   8
 Largest concise Abelian subgroup D2H     NOp   8
                         Standard orientation:                         
 ---------------------------------------------------------------------
 Center     Atomic      Atomic             Coordinates (Angstroms)
 Number     Number       Type             X           Y           Z
 ---------------------------------------------------------------------
      1         16           0        0.000000    0.000000    0.000000
      2          9           0        0.000000    0.000000    1.590000
      3          9           0        0.000000    0.000000   -1.590000
      4          9           0        0.000000    1.590000    0.000000
      5          9           0       -1.590000    0.000000    0.000000
      6          9           0        1.590000    0.000000    0.000000
      7          9           0        0.000000   -1.590000    0.000000
 ---------------------------------------------------------------------
 Rotational constants (GHZ):           2.6305457           2.6305457           2.6305457
 Standard basis: 6-31G (6D, 7F)
 There are    19 symmetry adapted cartesian basis functions of AG  symmetry.
 There are     4 symmetry adapted cartesian basis functions of B1G symmetry.
 There are     4 symmetry adapted cartesian basis functions of B2G symmetry.
 There are     4 symmetry adapted cartesian basis functions of B3G symmetry.
 There are     0 symmetry adapted cartesian basis functions of AU  symmetry.
 There are    12 symmetry adapted cartesian basis functions of B1U symmetry.
 There are    12 symmetry adapted cartesian basis functions of B2U symmetry.
 There are    12 symmetry adapted cartesian basis functions of B3U symmetry.
 There are    19 symmetry adapted basis functions of AG  symmetry.
 There are     4 symmetry adapted basis functions of B1G symmetry.
 There are     4 symmetry adapted basis functions of B2G symmetry.
 There are     4 symmetry adapted basis functions of B3G symmetry.
 There are     0 symmetry adapted basis functions of AU  symmetry.
 There are    12 symmetry adapted basis functions of B1U symmetry.
 There are    12 symmetry adapted basis functions of B2U symmetry.
 There are    12 symmetry adapted basis functions of B3U symmetry.
    67 basis functions,   178 primitive gaussians,    67 cartesian basis functions
    35 alpha electrons       35 beta electrons
       nuclear repulsion energy       556.7369568632 Hartrees.



 Warning!  S  atom    1 may be hypervalent but has no d functions.



 NAtoms=    7 NActive=    7 NUniq=    2 SFac= 4.00D+00 NAtFMM=   60 NAOKFM=F Big=F
 Integral buffers will be    131072 words long.
 Raffenetti 1 integral format.
 Two-electron integral symmetry is turned on.
 One-electron integrals computed using PRISM.
 NBasis=    67 RedAO= T EigKep=  1.69D-02  NBF=    19     4     4     4     0    12    12    12
 NBsUse=    67 1.00D-06 EigRej= -1.00D+00 NBFU=    19     4     4     4     0    12    12    12
 ExpMin= 1.17D-01 ExpMax= 2.19D+04 ExpMxC= 3.30D+03 IAcc=3 IRadAn=         5 AccDes= 0.00D+00
 Harris functional with IExCor=  205 and IRadAn=       5 diagonalized for initial guess.
 HarFok:  IExCor=  205 AccDes= 0.00D+00 IRadAn=         5 IDoV= 1 UseB2=F ITyADJ=14
 ICtDFT=  3500011 ScaDFX=  1.000000  1.000000  1.000000  1.000000
 FoFCou: FMM=F IPFlag=           0 FMFlag=      100000 FMFlg1=           0
         NFxFlg=           0 DoJE=T BraDBF=F KetDBF=T FulRan=T
         wScrn=  0.000000 ICntrl=       500 IOpCl=  0 I1Cent=   200000004 NGrid=           0
         NMat0=    1 NMatS0=      1 NMatT0=    0 NMatD0=    1 NMtDS0=    0 NMtDT0=    0
 Petite list used in FoFCou.
 Initial guess orbital symmetries:
       Occupied  (A1G) (A1G) (T1U) (T1U) (T1U) (EG) (EG) (A1G)
                 (T1U) (T1U) (T1U) (A1G) (T1U) (T1U) (T1U) (EG)
                 (EG) (A1G) (T1U) (T1U) (T1U) (T2G) (T2G) (T2G)
                 (EG) (EG) (T1U) (T1U) (T1U) (T2U) (T2U) (T2U)
                 (T1G) (T1G) (T1G)
       Virtual   (A1G) (T1U) (T1U) (T1U) (A1G) (T1U) (T1U) (T1U)
                 (T2G) (T2G) (T2G) (T1U) (T1U) (T1U) (A1G) (EG)
                 (EG) (T2U) (T2U) (T2U) (T1G) (T1G) (T1G) (EG)
                 (EG) (T1U) (T1U) (T1U) (T1U) (T1U) (T1U) (A1G)
 The electronic state of the initial guess is 1-A1G.
 Keep R1 ints in memory in symmetry-blocked form, NReq=3437231.
 Requested convergence on RMS density matrix=1.00D-08 within 128 cycles.
 Requested convergence on MAX density matrix=1.00D-06.
 Requested convergence on             energy=1.00D-06.
 No special actions if energy rises.
 SCF Done:  E(RHF) =  -993.548247899     A.U. after    9 cycles
            NFock=  9  Conv=0.12D-08     -V/T= 1.9992

 **********************************************************************

            Population analysis using the SCF Density.

 **********************************************************************

 Orbital symmetries:
       Occupied  (A1G) (T1U) (T1U) (T1U) (EG) (EG) (A1G) (A1G)
                 (T1U) (T1U) (T1U) (A1G) (T1U) (T1U) (T1U) (EG)
                 (EG) (A1G) (T1U) (T1U) (T1U) (T2G) (T2G) (T2G)
                 (T2U) (T2U) (T2U) (T1U) (T1U) (T1U) (T1G) (T1G)
                 (T1G) (EG) (EG)
       Virtual   (A1G) (T1U) (T1U) (T1U) (A1G) (T1U) (T1U) (T1U)
                 (T2G) (T2G) (T2G) (T1U) (T1U) (T1U) (A1G) (T2U)
                 (T2U) (T2U) (EG) (EG) (T1G) (T1G) (T1G) (EG) (EG)
                 (T1U) (T1U) (T1U) (T1U) (T1U) (T1U) (A1G)
 The electronic state is 1-A1G.
 Alpha  occ. eigenvalues --  -92.55153 -26.42349 -26.42349 -26.42349 -26.42348
 Alpha  occ. eigenvalues --  -26.42348 -26.42346  -9.52840  -7.21250  -7.21250
 Alpha  occ. eigenvalues --   -7.21250  -1.89923  -1.75708  -1.75708  -1.75708
 Alpha  occ. eigenvalues --   -1.69250  -1.69250  -1.16152  -0.95377  -0.95377
 Alpha  occ. eigenvalues --   -0.95377  -0.84066  -0.84066  -0.84066  -0.76282
 Alpha  occ. eigenvalues --   -0.76282  -0.76282  -0.74453  -0.74453  -0.74453
 Alpha  occ. eigenvalues --   -0.71879  -0.71879  -0.71879  -0.69601  -0.69601
 Alpha virt. eigenvalues --    0.01540   0.20868   0.20868   0.20868   0.41728
 Alpha virt. eigenvalues --    0.46917   0.46917   0.46917   1.14912   1.14912
 Alpha virt. eigenvalues --    1.14912   1.44497   1.44497   1.44497   1.44912
 Alpha virt. eigenvalues --    1.47412   1.47412   1.47412   1.51943   1.51943
 Alpha virt. eigenvalues --    1.73111   1.73111   1.73111   1.84341   1.84341
 Alpha virt. eigenvalues --    1.95162   1.95162   1.95162   2.48879   2.48879
 Alpha virt. eigenvalues --    2.48879   2.76868
          Condensed to atoms (all electrons):
               1          2          3          4          5          6
     1  S   12.659585   0.150763   0.150763   0.150763   0.150763   0.150763
     2  F    0.150763   9.409214   0.002823  -0.039207  -0.039207  -0.039207
     3  F    0.150763   0.002823   9.409214  -0.039207  -0.039207  -0.039207
     4  F    0.150763  -0.039207  -0.039207   9.409214  -0.039207  -0.039207
     5  F    0.150763  -0.039207  -0.039207  -0.039207   9.409214   0.002823
     6  F    0.150763  -0.039207  -0.039207  -0.039207   0.002823   9.409214
     7  F    0.150763  -0.039207  -0.039207   0.002823  -0.039207  -0.039207
               7
     1  S    0.150763
     2  F   -0.039207
     3  F   -0.039207
     4  F    0.002823
     5  F   -0.039207
     6  F   -0.039207
     7  F    9.409214
 Mulliken charges:
               1
     1  S    2.435839
     2  F   -0.405973
     3  F   -0.405973
     4  F   -0.405973
     5  F   -0.405973
     6  F   -0.405973
     7  F   -0.405973
 Sum of Mulliken charges =   0.00000
 Mulliken charges with hydrogens summed into heavy atoms:
               1
     1  S    2.435839
     2  F   -0.405973
     3  F   -0.405973
     4  F   -0.405973
     5  F   -0.405973
     6  F   -0.405973
     7  F   -0.405973
 Electronic spatial extent (au):  <R**2>=            591.1904
 Charge=              0.0000 electrons
 Dipole moment (field-independent basis, Debye):
    X=              0.0000    Y=              0.0000    Z=              0.0000  Tot=              0.0000
 Quadrupole moment (field-independent basis, Debye-Ang):
   XX=            -46.4835   YY=            -46.4835   ZZ=            -46.4835
   XY=              0.0000   XZ=              0.0000   YZ=              0.0000
 Traceless Quadrupole moment (field-independent basis, Debye-Ang):
   XX=              0.0000   YY=              0.0000   ZZ=              0.0000
   XY=              0.0000   XZ=              0.0000   YZ=              0.0000
 Octapole moment (field-independent basis, Debye-Ang**2):
  XXX=              0.0000  YYY=              0.0000  ZZZ=              0.0000  XYY=              0.0000
  XXY=              0.0000  XXZ=              0.0000  XZZ=              0.0000  YZZ=              0.0000
  YYZ=              0.0000  XYZ=              0.0000
 Hexadecapole moment (field-independent basis, Debye-Ang**3):
 XXXX=           -192.9692 YYYY=           -192.9692 ZZZZ=           -192.9692 XXXY=              0.0000
 XXXZ=              0.0000 YYYX=              0.0000 YYYZ=              0.0000 ZZZX=              0.0000
 ZZZY=              0.0000 XXYY=            -57.9851 XXZZ=            -57.9851 YYZZ=            -57.9851
 XXYZ=              0.0000 YYXZ=              0.0000 ZZXY=              0.0000
 N-N= 5.567369568632D+02 E-N=-3.480019467969D+03  KE= 9.943071886117D+02
 Symmetry AG   KE= 5.461341109914D+02
 Symmetry B1G  KE= 1.289259512301D+01
 Symmetry B2G  KE= 1.289259512301D+01
 Symmetry B3G  KE= 1.289259512301D+01
 Symmetry AU   KE= 0.000000000000D+00
 Symmetry B1U  KE= 1.364984307504D+02
 Symmetry B2U  KE= 1.364984307504D+02
 Symmetry B3U  KE= 1.364984307504D+02
 Calling FoFJK, ICntrl=      2127 FMM=F ISym2X=1 I1Cent= 0 IOpClX= 0 NMat=1 NMatS=1 NMatT=0.
 ***** Axes restored to original set *****
 -------------------------------------------------------------------
 Center     Atomic                   Forces (Hartrees/Bohr)
 Number     Number              X              Y              Z
 -------------------------------------------------------------------
      1       16           0.000000000    0.000000000    0.000000000
      2        9           0.000000000    0.000000000    0.075943904
      3        9           0.000000000    0.000000000   -0.075943904
      4        9           0.000000000    0.075943904    0.000000000
      5        9          -0.075943904    0.000000000    0.000000000
      6        9           0.075943904    0.000000000    0.000000000
      7        9           0.000000000   -0.075943904    0.000000000
 -------------------------------------------------------------------
 Cartesian Forces:  Max     0.075943904 RMS     0.040593724

 GradGradGradGradGradGradGradGradGradGradGradGradGradGradGradGradGradGrad
 Berny optimization.
 FormGI is forming the generalized inverse of G from B-inverse, IUseBI=4.
 Internal  Forces:  Max     0.075943904 RMS     0.032884675
 Search for a local minimum.
 Step number   1 out of a maximum of   42
 All quantities printed in internal units (Hartrees-Bohrs-Radians)
 Mixed Optimization -- RFO/linear search
 Second derivative matrix not updated -- first step.
 ITU=  0
     Eigenvalues ---    0.08709   0.09991   0.09991   0.09991   0.13743
     Eigenvalues ---    0.13743   0.13743   0.18777   0.25000   0.53201
     Eigenvalues ---    0.53201   0.53201   0.53201   0.53201   0.53201
 RFO step:  Lambda=-5.85924128D-02 EMin= 8.70913132D-02
 Linear search not attempted -- first point.
 Maximum step size (   0.300) exceeded in Quadratic search.
    -- Step size scaled by   0.952
 Iteration  1 RMS(Cart)=  0.05303301 RMS(Int)=  0.00000000
 Iteration  2 RMS(Cart)=  0.00000000 RMS(Int)=  0.00000000
 ClnCor:  largest displacement from symmetrization is 1.23D-13 for atom     3.
 Variable       Old X    -DE/DX   Delta X   Delta X   Delta X     New X
                                 (Linear)    (Quad)   (Total)
    R1        3.00466   0.07594   0.00000   0.12247   0.12247   3.12714
    R2        3.00466   0.07594   0.00000   0.12247   0.12247   3.12714
    R3        3.00466   0.07594   0.00000   0.12247   0.12247   3.12714
    R4        3.00466   0.07594   0.00000   0.12247   0.12247   3.12714
    R5        3.00466   0.07594   0.00000   0.12247   0.12247   3.12714
    R6        3.00466   0.07594   0.00000   0.12247   0.12247   3.12714
    A1        1.57080   0.00000   0.00000   0.00000   0.00000   1.57080
    A2        1.57080   0.00000   0.00000   0.00000   0.00000   1.57080
    A3        1.57080   0.00000   0.00000   0.00000   0.00000   1.57080
    A4        1.57080   0.00000   0.00000   0.00000   0.00000   1.57080
    A5        1.57080   0.00000   0.00000   0.00000   0.00000   1.57080
    A6        1.57080   0.00000   0.00000   0.00000   0.00000   1.57080
    A7        1.57080   0.00000   0.00000   0.00000   0.00000   1.57080
    A8        1.57080   0.00000   0.00000   0.00000   0.00000   1.57080
    A9        1.57080   0.00000   0.00000   0.00000   0.00000   1.57080
   A10        1.57080   0.00000   0.00000   0.00000   0.00000   1.57080
   A11        1.57080   0.00000   0.00000   0.00000   0.00000   1.57080
   A12        1.57080   0.00000   0.00000   0.00000   0.00000   1.57080
   A13        3.14159   0.00000   0.00000   0.00000   0.00000   3.14159
   A14        3.14159   0.00000   0.00000   0.00000   0.00000   3.14159
   A15        3.14159   0.00000   0.00000   0.00000   0.00000   3.14159
   A16        3.14159   0.00000   0.00000   0.00000   0.00000   3.14159
   A17        3.14159   0.00000   0.00000   0.00000   0.00000   3.14159
   A18        3.14159   0.00000   0.00000   0.00000   0.00000   3.14159
    D1        1.57080   0.00000   0.00000   0.00000   0.00000   1.57080
    D2       -1.57080   0.00000   0.00000   0.00000   0.00000  -1.57080
    D3        1.57080   0.00000   0.00000   0.00000   0.00000   1.57080
    D4       -1.57080   0.00000   0.00000   0.00000   0.00000  -1.57080
    D5       -1.57080   0.00000   0.00000   0.00000   0.00000  -1.57080
    D6        1.57080   0.00000   0.00000   0.00000   0.00000   1.57080
    D7       -1.57080   0.00000   0.00000   0.00000   0.00000  -1.57080
    D8        1.57080   0.00000   0.00000   0.00000   0.00000   1.57080
         Item               Value     Threshold  Converged?
 Maximum Force            0.075944     0.000450     NO 
 RMS     Force            0.032885     0.000300     NO 
 Maximum Displacement     0.122474     0.001800     NO 
 RMS     Displacement     0.053033     0.001200     NO 
 Predicted change in Energy=-3.186666D-02
 GradGradGradGradGradGradGradGradGradGradGradGradGradGradGradGradGradGrad

                          Input orientation:                          
 ---------------------------------------------------------------------
 Center     Atomic      Atomic             Coordinates (Angstroms)
 Number     Number       Type             X           Y           Z
 ---------------------------------------------------------------------
      1         16           0        0.000000    0.000000    0.000000
      2          9           0        0.000000    0.000000    1.654811
      3          9           0        0.000000    0.000000   -1.654811
      4          9           0        0.000000    1.654811    0.000000
      5          9           0       -1.654811    0.000000    0.000000
      6          9           0        1.654811    0.000000    0.000000
      7          9           0        0.000000   -1.654811    0.000000
 ---------------------------------------------------------------------
                    Distance matrix (angstroms):
                    1          2          3          4          5
     1  S    0.000000
     2  F    1.654811   0.000000
     3  F    1.654811   3.309621   0.000000
     4  F    1.654811   2.340256   2.340256   0.000000
     5  F    1.654811   2.340256   2.340256   2.340256   0.000000
     6  F    1.654811   2.340256   2.340256   2.340256   3.309621
     7  F    1.654811   2.340256   2.340256   3.309621   2.340256
                    6          7
     6  F    0.000000
     7  F    2.340256   0.000000
 Stoichiometry    F6S
 Framework group  OH[O(S),3C4(F.F)]
 Deg. of freedom     1
 Full point group                 OH      NOp  48
 Largest Abelian subgroup         D2H     NOp   8
 Largest concise Abelian subgroup D2H     NOp   8
                         Standard orientation:                         
 ---------------------------------------------------------------------
 Center     Atomic      Atomic             Coordinates (Angstroms)
 Number     Number       Type             X           Y           Z
 ---------------------------------------------------------------------
      1         16           0        0.000000    0.000000    0.000000
      2          9           0        0.000000    0.000000    1.654811
      3          9           0        0.000000    0.000000   -1.654811
      4          9           0        0.000000    1.654811    0.000000
      5          9           0       -1.654811    0.000000    0.000000
      6          9           0        1.654811    0.000000    0.000000
      7          9           0        0.000000   -1.654811    0.000000
 ---------------------------------------------------------------------
 Rotational constants (GHZ):           2.4285299           2.4285299           2.4285299
 Standard basis: 6-31G (6D, 7F)
 There are    19 symmetry adapted cartesian basis functions of AG  symmetry.
 There are     4 symmetry adapted cartesian basis functions of B1G symmetry.
 There are     4 symmetry adapted cartesian basis functions of B2G symmetry.
 There are     4 symmetry adapted cartesian basis functions of B3G symmetry.
 There are     0 symmetry adapted cartesian basis functions of AU  symmetry.
 There are    12 symmetry adapted cartesian basis functions of B1U symmetry.
 There are    12 symmetry adapted cartesian basis functions of B2U symmetry.
 There are    12 symmetry adapted cartesian basis functions of B3U symmetry.
 There are    19 symmetry adapted basis functions of AG  symmetry.
 There are     4 symmetry adapted basis functions of B1G symmetry.
 There are     4 symmetry adapted basis functions of B2G symmetry.
 There are     4 symmetry adapted basis functions of B3G symmetry.
 There are     0 symmetry adapted basis functions of AU  symmetry.
 There are    12 symmetry adapted basis functions of B1U symmetry.
 There are    12 symmetry adapted basis functions of B2U symmetry.
 There are    12 symmetry adapted basis functions of B3U symmetry.
    67 basis functions,   178 primitive gaussians,    67 cartesian basis functions
    35 alpha electrons       35 beta electrons
       nuclear repulsion energy       534.9323384200 Hartrees.



 Warning!  S  atom    1 may be hypervalent but has no d functions.



 NAtoms=    7 NActive=    7 NUniq=    2 SFac= 4.00D+00 NAtFMM=   60 NAOKFM=F Big=F
 Integral buffers will be    131072 words long.
 Raffenetti 1 integral format.
 Two-electron integral symmetry is turned on.
 One-electron integrals computed using PRISM.
 NBasis=    67 RedAO= T EigKep=  1.78D-02  NBF=    19     4     4     4     0    12    12    12
 NBsUse=    67 1.00D-06 EigRej= -1.00D+00 NBFU=    19     4     4     4     0    12    12    12
 Initial guess from the checkpoint file:  "D:\APPs\lihaibei\molecules-use\SF6.chk"
 B after Tr=     0.000000    0.000000    0.000000
         Rot=    1.000000    0.000000    0.000000    0.000000 Ang=   0.00 deg.
 Initial guess orbital symmetries:
       Occupied  (A1G) (T1U) (T1U) (T1U) (EG) (EG) (A1G) (A1G)
                 (T1U) (T1U) (T1U) (A1G) (T1U) (T1U) (T1U) (EG)
                 (EG) (A1G) (T1U) (T1U) (T1U) (T2G) (T2G) (T2G)
                 (T2U) (T2U) (T2U) (T1U) (T1U) (T1U) (T1G) (T1G)
                 (T1G) (EG) (EG)
       Virtual   (A1G) (T1U) (T1U) (T1U) (A1G) (T1U) (T1U) (T1U)
                 (T2G) (T2G) (T2G) (T1U) (T1U) (T1U) (A1G) (T2U)
                 (T2U) (T2U) (EG) (EG) (T1G) (T1G) (T1G) (EG) (EG)
                 (T1U) (T1U) (T1U) (T1U) (T1U) (T1U) (A1G)
 ExpMin= 1.17D-01 ExpMax= 2.19D+04 ExpMxC= 3.30D+03 IAcc=3 IRadAn=         5 AccDes= 0.00D+00
 Harris functional with IExCor=  205 and IRadAn=       5 diagonalized for initial guess.
 HarFok:  IExCor=  205 AccDes= 0.00D+00 IRadAn=         5 IDoV= 1 UseB2=F ITyADJ=14
 ICtDFT=  3500011 ScaDFX=  1.000000  1.000000  1.000000  1.000000
 FoFCou: FMM=F IPFlag=           0 FMFlag=      100000 FMFlg1=           0
         NFxFlg=           0 DoJE=T BraDBF=F KetDBF=T FulRan=T
         wScrn=  0.000000 ICntrl=       500 IOpCl=  0 I1Cent=   200000004 NGrid=           0
         NMat0=    1 NMatS0=      1 NMatT0=    0 NMatD0=    1 NMtDS0=    0 NMtDT0=    0
 Petite list used in FoFCou.
 Keep R1 ints in memory in symmetry-blocked form, NReq=3437051.
 Requested convergence on RMS density matrix=1.00D-08 within 128 cycles.
 Requested convergence on MAX density matrix=1.00D-06.
 Requested convergence on             energy=1.00D-06.
 No special actions if energy rises.
 SCF Done:  E(RHF) =  -993.580607135     A.U. after    9 cycles
            NFock=  9  Conv=0.96D-08     -V/T= 2.0003
 Calling FoFJK, ICntrl=      2127 FMM=F ISym2X=1 I1Cent= 0 IOpClX= 0 NMat=1 NMatS=1 NMatT=0.
 ***** Axes restored to original set *****
 -------------------------------------------------------------------
 Center     Atomic                   Forces (Hartrees/Bohr)
 Number     Number              X              Y              Z
 -------------------------------------------------------------------
      1       16           0.000000000    0.000000000    0.000000000
      2        9           0.000000000    0.000000000    0.015487974
      3        9           0.000000000    0.000000000   -0.015487974
      4        9           0.000000000    0.015487974    0.000000000
      5        9          -0.015487974    0.000000000    0.000000000
      6        9           0.015487974    0.000000000    0.000000000
      7        9           0.000000000   -0.015487974    0.000000000
 -------------------------------------------------------------------
 Cartesian Forces:  Max     0.015487974 RMS     0.008278670

 GradGradGradGradGradGradGradGradGradGradGradGradGradGradGradGradGradGrad
 Berny optimization.
 Using GEDIIS/GDIIS optimizer.
 FormGI is forming the generalized inverse of G from B-inverse, IUseBI=4.
 Internal  Forces:  Max     0.015487974 RMS     0.006706489
 Search for a local minimum.
 Step number   2 out of a maximum of   42
 All quantities printed in internal units (Hartrees-Bohrs-Radians)
 Mixed Optimization -- RFO/linear search
 Update second derivatives using D2CorX and points    1    2
 DE= -3.24D-02 DEPred=-3.19D-02 R= 1.02D+00
 TightC=F SS=  1.41D+00  RLast= 3.00D-01 DXNew= 5.0454D-01 9.0000D-01
 Trust test= 1.02D+00 RLast= 3.00D-01 DXMaxT set to 5.05D-01
 ITU=  1  0
 Use linear search instead of GDIIS.
     Eigenvalues ---    0.08709   0.09991   0.09991   0.09991   0.13743
     Eigenvalues ---    0.13743   0.13743   0.18777   0.25000   0.49362
     Eigenvalues ---    0.53201   0.53201   0.53201   0.53201   0.53201
 RFO step:  Lambda= 0.00000000D+00 EMin= 8.70913132D-02
 Quartic linear search produced a step of  0.32461.
 Iteration  1 RMS(Cart)=  0.01721491 RMS(Int)=  0.00000000
 Iteration  2 RMS(Cart)=  0.00000000 RMS(Int)=  0.00000000
 ClnCor:  largest displacement from symmetrization is 3.68D-13 for atom     7.
 Variable       Old X    -DE/DX   Delta X   Delta X   Delta X     New X
                                 (Linear)    (Quad)   (Total)
    R1        3.12714   0.01549   0.03976   0.00000   0.03976   3.16690
    R2        3.12714   0.01549   0.03976   0.00000   0.03976   3.16690
    R3        3.12714   0.01549   0.03976   0.00000   0.03976   3.16690
    R4        3.12714   0.01549   0.03976   0.00000   0.03976   3.16690
    R5        3.12714   0.01549   0.03976   0.00000   0.03976   3.16690
    R6        3.12714   0.01549   0.03976   0.00000   0.03976   3.16690
    A1        1.57080   0.00000   0.00000   0.00000   0.00000   1.57080
    A2        1.57080   0.00000   0.00000   0.00000   0.00000   1.57080
    A3        1.57080   0.00000   0.00000   0.00000   0.00000   1.57080
    A4        1.57080   0.00000   0.00000   0.00000   0.00000   1.57080
    A5        1.57080   0.00000   0.00000   0.00000   0.00000   1.57080
    A6        1.57080   0.00000   0.00000   0.00000   0.00000   1.57080
    A7        1.57080   0.00000   0.00000   0.00000   0.00000   1.57080
    A8        1.57080   0.00000   0.00000   0.00000   0.00000   1.57080
    A9        1.57080   0.00000   0.00000   0.00000   0.00000   1.57080
   A10        1.57080   0.00000   0.00000   0.00000   0.00000   1.57080
   A11        1.57080   0.00000   0.00000   0.00000   0.00000   1.57080
   A12        1.57080   0.00000   0.00000   0.00000   0.00000   1.57080
   A13        3.14159   0.00000   0.00000   0.00000   0.00000   3.14159
   A14        3.14159   0.00000   0.00000   0.00000   0.00000   3.14159
   A15        3.14159   0.00000   0.00000   0.00000   0.00000   3.14159
   A16        3.14159   0.00000   0.00000   0.00000   0.00000   3.14159
   A17        3.14159   0.00000   0.00000   0.00000   0.00000   3.14159
   A18        3.14159   0.00000   0.00000   0.00000   0.00000   3.14159
    D1        1.57080   0.00000   0.00000   0.00000   0.00000   1.57080
    D2       -1.57080   0.00000   0.00000   0.00000   0.00000  -1.57080
    D3        1.57080   0.00000   0.00000   0.00000   0.00000   1.57080
    D4       -1.57080   0.00000   0.00000   0.00000   0.00000  -1.57080
    D5       -1.57080   0.00000   0.00000   0.00000   0.00000  -1.57080
    D6        1.57080   0.00000   0.00000   0.00000   0.00000   1.57080
    D7       -1.57080   0.00000   0.00000   0.00000   0.00000  -1.57080
    D8        1.57080   0.00000   0.00000   0.00000   0.00000   1.57080
         Item               Value     Threshold  Converged?
 Maximum Force            0.015488     0.000450     NO 
 RMS     Force            0.006706     0.000300     NO 
 Maximum Displacement     0.039756     0.001800     NO 
 RMS     Displacement     0.017215     0.001200     NO 
 Predicted change in Energy=-1.353875D-03
 GradGradGradGradGradGradGradGradGradGradGradGradGradGradGradGradGradGrad

                          Input orientation:                          
 ---------------------------------------------------------------------
 Center     Atomic      Atomic             Coordinates (Angstroms)
 Number     Number       Type             X           Y           Z
 ---------------------------------------------------------------------
      1         16           0        0.000000    0.000000    0.000000
      2          9           0        0.000000    0.000000    1.675849
      3          9           0        0.000000    0.000000   -1.675849
      4          9           0        0.000000    1.675849    0.000000
      5          9           0       -1.675849    0.000000    0.000000
      6          9           0        1.675849    0.000000    0.000000
      7          9           0        0.000000   -1.675849    0.000000
 ---------------------------------------------------------------------
                    Distance matrix (angstroms):
                    1          2          3          4          5
     1  S    0.000000
     2  F    1.675849   0.000000
     3  F    1.675849   3.351697   0.000000
     4  F    1.675849   2.370008   2.370008   0.000000
     5  F    1.675849   2.370008   2.370008   2.370008   0.000000
     6  F    1.675849   2.370008   2.370008   2.370008   3.351697
     7  F    1.675849   2.370008   2.370008   3.351697   2.370008
                    6          7
     6  F    0.000000
     7  F    2.370008   0.000000
 Stoichiometry    F6S
 Framework group  OH[O(S),3C4(F.F)]
 Deg. of freedom     1
 Full point group                 OH      NOp  48
 Largest Abelian subgroup         D2H     NOp   8
 Largest concise Abelian subgroup D2H     NOp   8
                         Standard orientation:                         
 ---------------------------------------------------------------------
 Center     Atomic      Atomic             Coordinates (Angstroms)
 Number     Number       Type             X           Y           Z
 ---------------------------------------------------------------------
      1         16           0        0.000000    0.000000    0.000000
      2          9           0        0.000000    0.000000    1.675849
      3          9           0        0.000000    0.000000   -1.675849
      4          9           0        0.000000    1.675849    0.000000
      5          9           0       -1.675849    0.000000    0.000000
      6          9           0        1.675849    0.000000    0.000000
      7          9           0        0.000000   -1.675849    0.000000
 ---------------------------------------------------------------------
 Rotational constants (GHZ):           2.3679388           2.3679388           2.3679388
 Standard basis: 6-31G (6D, 7F)
 There are    19 symmetry adapted cartesian basis functions of AG  symmetry.
 There are     4 symmetry adapted cartesian basis functions of B1G symmetry.
 There are     4 symmetry adapted cartesian basis functions of B2G symmetry.
 There are     4 symmetry adapted cartesian basis functions of B3G symmetry.
 There are     0 symmetry adapted cartesian basis functions of AU  symmetry.
 There are    12 symmetry adapted cartesian basis functions of B1U symmetry.
 There are    12 symmetry adapted cartesian basis functions of B2U symmetry.
 There are    12 symmetry adapted cartesian basis functions of B3U symmetry.
 There are    19 symmetry adapted basis functions of AG  symmetry.
 There are     4 symmetry adapted basis functions of B1G symmetry.
 There are     4 symmetry adapted basis functions of B2G symmetry.
 There are     4 symmetry adapted basis functions of B3G symmetry.
 There are     0 symmetry adapted basis functions of AU  symmetry.
 There are    12 symmetry adapted basis functions of B1U symmetry.
 There are    12 symmetry adapted basis functions of B2U symmetry.
 There are    12 symmetry adapted basis functions of B3U symmetry.
    67 basis functions,   178 primitive gaussians,    67 cartesian basis functions
    35 alpha electrons       35 beta electrons
       nuclear repulsion energy       528.2169786977 Hartrees.



 Warning!  S  atom    1 may be hypervalent but has no d functions.



 NAtoms=    7 NActive=    7 NUniq=    2 SFac= 4.00D+00 NAtFMM=   60 NAOKFM=F Big=F
 Integral buffers will be    131072 words long.
 Raffenetti 1 integral format.
 Two-electron integral symmetry is turned on.
 One-electron integrals computed using PRISM.
 NBasis=    67 RedAO= T EigKep=  1.82D-02  NBF=    19     4     4     4     0    12    12    12
 NBsUse=    67 1.00D-06 EigRej= -1.00D+00 NBFU=    19     4     4     4     0    12    12    12
 Initial guess from the checkpoint file:  "D:\APPs\lihaibei\molecules-use\SF6.chk"
 B after Tr=     0.000000    0.000000    0.000000
         Rot=    1.000000    0.000000    0.000000    0.000000 Ang=   0.00 deg.
 Initial guess orbital symmetries:
       Occupied  (A1G) (T1U) (T1U) (T1U) (A1G) (EG) (EG) (A1G)
                 (T1U) (T1U) (T1U) (A1G) (T1U) (T1U) (T1U) (EG)
                 (EG) (A1G) (T1U) (T1U) (T1U) (T2G) (T2G) (T2G)
                 (T2U) (T2U) (T2U) (T1U) (T1U) (T1U) (T1G) (T1G)
                 (T1G) (EG) (EG)
       Virtual   (A1G) (T1U) (T1U) (T1U) (A1G) (T1U) (T1U) (T1U)
                 (T2G) (T2G) (T2G) (T1U) (T1U) (T1U) (T2U) (T2U)
                 (T2U) (A1G) (EG) (EG) (T1G) (T1G) (T1G) (EG) (EG)
                 (T1U) (T1U) (T1U) (T1U) (T1U) (T1U) (A1G)
 ExpMin= 1.17D-01 ExpMax= 2.19D+04 ExpMxC= 3.30D+03 IAcc=3 IRadAn=         5 AccDes= 0.00D+00
 Harris functional with IExCor=  205 and IRadAn=       5 diagonalized for initial guess.
 HarFok:  IExCor=  205 AccDes= 0.00D+00 IRadAn=         5 IDoV= 1 UseB2=F ITyADJ=14
 ICtDFT=  3500011 ScaDFX=  1.000000  1.000000  1.000000  1.000000
 FoFCou: FMM=F IPFlag=           0 FMFlag=      100000 FMFlg1=           0
         NFxFlg=           0 DoJE=T BraDBF=F KetDBF=T FulRan=T
         wScrn=  0.000000 ICntrl=       500 IOpCl=  0 I1Cent=   200000004 NGrid=           0
         NMat0=    1 NMatS0=      1 NMatT0=    0 NMatD0=    1 NMtDS0=    0 NMtDT0=    0
 Petite list used in FoFCou.
 Keep R1 ints in memory in symmetry-blocked form, NReq=3436847.
 Requested convergence on RMS density matrix=1.00D-08 within 128 cycles.
 Requested convergence on MAX density matrix=1.00D-06.
 Requested convergence on             energy=1.00D-06.
 No special actions if energy rises.
 SCF Done:  E(RHF) =  -993.582407185     A.U. after    8 cycles
            NFock=  8  Conv=0.57D-08     -V/T= 2.0005
 Calling FoFJK, ICntrl=      2127 FMM=F ISym2X=1 I1Cent= 0 IOpClX= 0 NMat=1 NMatS=1 NMatT=0.
 ***** Axes restored to original set *****
 -------------------------------------------------------------------
 Center     Atomic                   Forces (Hartrees/Bohr)
 Number     Number              X              Y              Z
 -------------------------------------------------------------------
      1       16           0.000000000    0.000000000    0.000000000
      2        9           0.000000000    0.000000000   -0.000098227
      3        9           0.000000000    0.000000000    0.000098227
      4        9           0.000000000   -0.000098227    0.000000000
      5        9           0.000098227    0.000000000    0.000000000
      6        9          -0.000098227    0.000000000    0.000000000
      7        9           0.000000000    0.000098227    0.000000000
 -------------------------------------------------------------------
 Cartesian Forces:  Max     0.000098227 RMS     0.000052505

 GradGradGradGradGradGradGradGradGradGradGradGradGradGradGradGradGradGrad
 Berny optimization.
 Using GEDIIS/GDIIS optimizer.
 FormGI is forming the generalized inverse of G from B-inverse, IUseBI=4.
 Internal  Forces:  Max     0.000098227 RMS     0.000042534
 Search for a local minimum.
 Step number   3 out of a maximum of   42
 All quantities printed in internal units (Hartrees-Bohrs-Radians)
 Mixed Optimization -- En-DIIS/RFO-DIIS
 Update second derivatives using D2CorX and points    1    2    3
 DE= -1.80D-03 DEPred=-1.35D-03 R= 1.33D+00
 TightC=F SS=  1.41D+00  RLast= 9.74D-02 DXNew= 8.4853D-01 2.9215D-01
 Trust test= 1.33D+00 RLast= 9.74D-02 DXMaxT set to 5.05D-01
 ITU=  1  1  0
 Use linear search instead of GDIIS.
     Eigenvalues ---    0.08709   0.09991   0.09991   0.09991   0.13743
     Eigenvalues ---    0.13743   0.13743   0.18777   0.25000   0.39205
     Eigenvalues ---    0.53201   0.53201   0.53201   0.53201   0.53201
 RFO step:  Lambda= 0.00000000D+00 EMin= 8.70913132D-02
 Quartic linear search produced a step of -0.00668.
 Iteration  1 RMS(Cart)=  0.00011497 RMS(Int)=  0.00000000
 Iteration  2 RMS(Cart)=  0.00000000 RMS(Int)=  0.00000000
 ClnCor:  largest displacement from symmetrization is 3.56D-13 for atom     5.
 Variable       Old X    -DE/DX   Delta X   Delta X   Delta X     New X
                                 (Linear)    (Quad)   (Total)
    R1        3.16690  -0.00010  -0.00027   0.00000  -0.00027   3.16663
    R2        3.16690  -0.00010  -0.00027   0.00000  -0.00027   3.16663
    R3        3.16690  -0.00010  -0.00027   0.00000  -0.00027   3.16663
    R4        3.16690  -0.00010  -0.00027   0.00000  -0.00027   3.16663
    R5        3.16690  -0.00010  -0.00027   0.00000  -0.00027   3.16663
    R6        3.16690  -0.00010  -0.00027   0.00000  -0.00027   3.16663
    A1        1.57080   0.00000   0.00000   0.00000   0.00000   1.57080
    A2        1.57080   0.00000   0.00000   0.00000   0.00000   1.57080
    A3        1.57080   0.00000   0.00000   0.00000   0.00000   1.57080
    A4        1.57080   0.00000   0.00000   0.00000   0.00000   1.57080
    A5        1.57080   0.00000   0.00000   0.00000   0.00000   1.57080
    A6        1.57080   0.00000   0.00000   0.00000   0.00000   1.57080
    A7        1.57080   0.00000   0.00000   0.00000   0.00000   1.57080
    A8        1.57080   0.00000   0.00000   0.00000   0.00000   1.57080
    A9        1.57080   0.00000   0.00000   0.00000   0.00000   1.57080
   A10        1.57080   0.00000   0.00000   0.00000   0.00000   1.57080
   A11        1.57080   0.00000   0.00000   0.00000   0.00000   1.57080
   A12        1.57080   0.00000   0.00000   0.00000   0.00000   1.57080
   A13        3.14159   0.00000   0.00000   0.00000   0.00000   3.14159
   A14        3.14159   0.00000   0.00000   0.00000   0.00000   3.14159
   A15        3.14159   0.00000   0.00000   0.00000   0.00000   3.14159
   A16        3.14159   0.00000   0.00000   0.00000   0.00000   3.14159
   A17        3.14159   0.00000   0.00000   0.00000   0.00000   3.14159
   A18        3.14159   0.00000   0.00000   0.00000   0.00000   3.14159
    D1        1.57080   0.00000   0.00000   0.00000   0.00000   1.57080
    D2       -1.57080   0.00000   0.00000   0.00000   0.00000  -1.57080
    D3        1.57080   0.00000   0.00000   0.00000   0.00000   1.57080
    D4       -1.57080   0.00000   0.00000   0.00000   0.00000  -1.57080
    D5       -1.57080   0.00000   0.00000   0.00000   0.00000  -1.57080
    D6        1.57080   0.00000   0.00000   0.00000   0.00000   1.57080
    D7       -1.57080   0.00000   0.00000   0.00000   0.00000  -1.57080
    D8        1.57080   0.00000   0.00000   0.00000   0.00000   1.57080
         Item               Value     Threshold  Converged?
 Maximum Force            0.000098     0.000450     YES
 RMS     Force            0.000043     0.000300     YES
 Maximum Displacement     0.000266     0.001800     YES
 RMS     Displacement     0.000115     0.001200     YES
 Predicted change in Energy=-7.356955D-08
 Optimization completed.
    -- Stationary point found.
                           ----------------------------
                           !   Optimized Parameters   !
                           ! (Angstroms and Degrees)  !
 --------------------------                            --------------------------
 ! Name  Definition              Value          Derivative Info.                !
 --------------------------------------------------------------------------------
 ! R1    R(1,2)                  1.6758         -DE/DX =   -0.0001              !
 ! R2    R(1,3)                  1.6758         -DE/DX =   -0.0001              !
 ! R3    R(1,4)                  1.6758         -DE/DX =   -0.0001              !
 ! R4    R(1,5)                  1.6758         -DE/DX =   -0.0001              !
 ! R5    R(1,6)                  1.6758         -DE/DX =   -0.0001              !
 ! R6    R(1,7)                  1.6758         -DE/DX =   -0.0001              !
 ! A1    A(2,1,4)               90.0            -DE/DX =    0.0                 !
 ! A2    A(2,1,5)               90.0            -DE/DX =    0.0                 !
 ! A3    A(2,1,6)               90.0            -DE/DX =    0.0                 !
 ! A4    A(2,1,7)               90.0            -DE/DX =    0.0                 !
 ! A5    A(3,1,4)               90.0            -DE/DX =    0.0                 !
 ! A6    A(3,1,5)               90.0            -DE/DX =    0.0                 !
 ! A7    A(3,1,6)               90.0            -DE/DX =    0.0                 !
 ! A8    A(3,1,7)               90.0            -DE/DX =    0.0                 !
 ! A9    A(4,1,5)               90.0            -DE/DX =    0.0                 !
 ! A10   A(4,1,6)               90.0            -DE/DX =    0.0                 !
 ! A11   A(5,1,7)               90.0            -DE/DX =    0.0                 !
 ! A12   A(6,1,7)               90.0            -DE/DX =    0.0                 !
 ! A13   L(2,1,3,4,-1)         180.0            -DE/DX =    0.0                 !
 ! A14   L(4,1,7,2,-1)         180.0            -DE/DX =    0.0                 !
 ! A15   L(5,1,6,2,-1)         180.0            -DE/DX =    0.0                 !
 ! A16   L(2,1,3,4,-2)         180.0            -DE/DX =    0.0                 !
 ! A17   L(4,1,7,2,-2)         180.0            -DE/DX =    0.0                 !
 ! A18   L(5,1,6,2,-2)         180.0            -DE/DX =    0.0                 !
 ! D1    D(2,1,5,4)             90.0            -DE/DX =    0.0                 !
 ! D2    D(2,1,6,4)            -90.0            -DE/DX =    0.0                 !
 ! D3    D(2,1,7,5)             90.0            -DE/DX =    0.0                 !
 ! D4    D(2,1,7,6)            -90.0            -DE/DX =    0.0                 !
 ! D5    D(3,1,5,4)            -90.0            -DE/DX =    0.0                 !
 ! D6    D(3,1,6,4)             90.0            -DE/DX =    0.0                 !
 ! D7    D(3,1,7,5)            -90.0            -DE/DX =    0.0                 !
 ! D8    D(3,1,7,6)             90.0            -DE/DX =    0.0                 !
 --------------------------------------------------------------------------------
 GradGradGradGradGradGradGradGradGradGradGradGradGradGradGradGradGradGrad

                          Input orientation:                          
 ---------------------------------------------------------------------
 Center     Atomic      Atomic             Coordinates (Angstroms)
 Number     Number       Type             X           Y           Z
 ---------------------------------------------------------------------
      1         16           0        0.000000    0.000000    0.000000
      2          9           0        0.000000    0.000000    1.675849
      3          9           0        0.000000    0.000000   -1.675849
      4          9           0        0.000000    1.675849    0.000000
      5          9           0       -1.675849    0.000000    0.000000
      6          9           0        1.675849    0.000000    0.000000
      7          9           0        0.000000   -1.675849    0.000000
 ---------------------------------------------------------------------
                    Distance matrix (angstroms):
                    1          2          3          4          5
     1  S    0.000000
     2  F    1.675849   0.000000
     3  F    1.675849   3.351697   0.000000
     4  F    1.675849   2.370008   2.370008   0.000000
     5  F    1.675849   2.370008   2.370008   2.370008   0.000000
     6  F    1.675849   2.370008   2.370008   2.370008   3.351697
     7  F    1.675849   2.370008   2.370008   3.351697   2.370008
                    6          7
     6  F    0.000000
     7  F    2.370008   0.000000
 Stoichiometry    F6S
 Framework group  OH[O(S),3C4(F.F)]
 Deg. of freedom     1
 Full point group                 OH      NOp  48
 Largest Abelian subgroup         D2H     NOp   8
 Largest concise Abelian subgroup D2H     NOp   8
                         Standard orientation:                         
 ---------------------------------------------------------------------
 Center     Atomic      Atomic             Coordinates (Angstroms)
 Number     Number       Type             X           Y           Z
 ---------------------------------------------------------------------
      1         16           0        0.000000    0.000000    0.000000
      2          9           0        0.000000    0.000000    1.675849
      3          9           0        0.000000    0.000000   -1.675849
      4          9           0        0.000000    1.675849    0.000000
      5          9           0       -1.675849    0.000000    0.000000
      6          9           0        1.675849    0.000000    0.000000
      7          9           0        0.000000   -1.675849    0.000000
 ---------------------------------------------------------------------
 Rotational constants (GHZ):           2.3679388           2.3679388           2.3679388

 **********************************************************************

            Population analysis using the SCF Density.

 **********************************************************************

 Orbital symmetries:
       Occupied  (A1G) (T1U) (T1U) (T1U) (A1G) (EG) (EG) (A1G)
                 (T1U) (T1U) (T1U) (A1G) (T1U) (T1U) (T1U) (EG)
                 (EG) (A1G) (T1U) (T1U) (T1U) (T2G) (T2G) (T2G)
                 (T2U) (T2U) (T2U) (T1U) (T1U) (T1U) (T1G) (T1G)
                 (T1G) (EG) (EG)
       Virtual   (A1G) (T1U) (T1U) (T1U) (A1G) (T1U) (T1U) (T1U)
                 (T2G) (T2G) (T2G) (T2U) (T2U) (T2U) (T1U) (T1U)
                 (T1U) (A1G) (EG) (EG) (T1G) (T1G) (T1G) (EG) (EG)
                 (T1U) (T1U) (T1U) (T1U) (T1U) (T1U) (A1G)
 The electronic state is 1-A1G.
 Alpha  occ. eigenvalues --  -92.53102 -26.42362 -26.42362 -26.42362 -26.42361
 Alpha  occ. eigenvalues --  -26.42359 -26.42359  -9.50166  -7.18547  -7.18547
 Alpha  occ. eigenvalues --   -7.18547  -1.82054  -1.71379  -1.71379  -1.71379
 Alpha  occ. eigenvalues --   -1.66977  -1.66977  -1.15988  -0.91366  -0.91366
 Alpha  occ. eigenvalues --   -0.91366  -0.80929  -0.80929  -0.80929  -0.75067
 Alpha  occ. eigenvalues --   -0.75067  -0.75067  -0.73040  -0.73040  -0.73040
 Alpha  occ. eigenvalues --   -0.71698  -0.71698  -0.71698  -0.66667  -0.66667
 Alpha virt. eigenvalues --   -0.06926   0.12799   0.12799   0.12799   0.44193
 Alpha virt. eigenvalues --    0.47626   0.47626   0.47626   1.16149   1.16149
 Alpha virt. eigenvalues --    1.16149   1.45981   1.45981   1.45981   1.46299
 Alpha virt. eigenvalues --    1.46299   1.46299   1.47538   1.52006   1.52006
 Alpha virt. eigenvalues --    1.68783   1.68783   1.68783   1.75585   1.75585
 Alpha virt. eigenvalues --    1.88650   1.88650   1.88650   2.48826   2.48826
 Alpha virt. eigenvalues --    2.48826   2.86533
          Condensed to atoms (all electrons):
               1          2          3          4          5          6
     1  S   12.740356   0.140230   0.140230   0.140230   0.140230   0.140230
     2  F    0.140230   9.362050   0.001287  -0.025131  -0.025131  -0.025131
     3  F    0.140230   0.001287   9.362050  -0.025131  -0.025131  -0.025131
     4  F    0.140230  -0.025131  -0.025131   9.362050  -0.025131  -0.025131
     5  F    0.140230  -0.025131  -0.025131  -0.025131   9.362050   0.001287
     6  F    0.140230  -0.025131  -0.025131  -0.025131   0.001287   9.362050
     7  F    0.140230  -0.025131  -0.025131   0.001287  -0.025131  -0.025131
               7
     1  S    0.140230
     2  F   -0.025131
     3  F   -0.025131
     4  F    0.001287
     5  F   -0.025131
     6  F   -0.025131
     7  F    9.362050
 Mulliken charges:
               1
     1  S    2.418261
     2  F   -0.403043
     3  F   -0.403043
     4  F   -0.403043
     5  F   -0.403043
     6  F   -0.403043
     7  F   -0.403043
 Sum of Mulliken charges =   0.00000
 Mulliken charges with hydrogens summed into heavy atoms:
               1
     1  S    2.418261
     2  F   -0.403043
     3  F   -0.403043
     4  F   -0.403043
     5  F   -0.403043
     6  F   -0.403043
     7  F   -0.403043
 Electronic spatial extent (au):  <R**2>=            645.6584
 Charge=              0.0000 electrons
 Dipole moment (field-independent basis, Debye):
    X=              0.0000    Y=              0.0000    Z=              0.0000  Tot=              0.0000
 Quadrupole moment (field-independent basis, Debye-Ang):
   XX=            -46.6638   YY=            -46.6638   ZZ=            -46.6638
   XY=              0.0000   XZ=              0.0000   YZ=              0.0000
 Traceless Quadrupole moment (field-independent basis, Debye-Ang):
   XX=              0.0000   YY=              0.0000   ZZ=              0.0000
   XY=              0.0000   XZ=              0.0000   YZ=              0.0000
 Octapole moment (field-independent basis, Debye-Ang**2):
  XXX=              0.0000  YYY=              0.0000  ZZZ=              0.0000  XYY=              0.0000
  XXY=              0.0000  XXZ=              0.0000  XZZ=              0.0000  YZZ=              0.0000
  YYZ=              0.0000  XYZ=              0.0000
 Hexadecapole moment (field-independent basis, Debye-Ang**3):
 XXXX=           -209.8488 YYYY=           -209.8488 ZZZZ=           -209.8488 XXXY=              0.0000
 XXXZ=              0.0000 YYYX=              0.0000 YYYZ=              0.0000 ZZZX=              0.0000
 ZZZY=              0.0000 XXYY=            -63.4514 XXZZ=            -63.4514 YYZZ=            -63.4514
 XXYZ=              0.0000 YYXZ=              0.0000 ZZXY=              0.0000
 N-N= 5.282169786977D+02 E-N=-3.423260452436D+03  KE= 9.930385803504D+02
 Symmetry AG   KE= 5.456611268261D+02
 Symmetry B1G  KE= 1.289397245046D+01
 Symmetry B2G  KE= 1.289397245046D+01
 Symmetry B3G  KE= 1.289397245046D+01
 Symmetry AU   KE= 0.000000000000D+00
 Symmetry B1U  KE= 1.362318453910D+02
 Symmetry B2U  KE= 1.362318453910D+02
 Symmetry B3U  KE= 1.362318453910D+02
 1|1|UNPC-WIN10-2T0259|FOpt|RHF|6-31G|F6S1|SDDX|16-Apr-2026|0||# opt hf
 /6-31g geom=connectivity||Title Card Required||0,1|S,0.,0.,0.|F,0.,0.,
 1.6758487461|F,0.,0.,-1.6758487461|F,0.,1.6758487461,0.|F,-1.675848746
 1,0.,0.|F,1.6758487461,0.,0.|F,0.,-1.6758487461,0.||Version=EM64W-G16R
 evB.01|State=1-A1G|HF=-993.5824072|RMSD=5.688e-009|RMSF=5.250e-005|Dip
 ole=0.,0.,0.|Quadrupole=0.,0.,0.,0.,0.,0.|PG=OH [O(S1),3C4(F1.F1)]||@



 IN THIS SHORT LIFE

 THAT ONLY LASTS AN HOUR

 HOW MUCH, HOW LITTLE, IS WITHIN OUR POWER....


 EMILY DICKINSON BOLTS OF MELODY NO. 521
 Job cpu time:       0 days  0 hours  0 minutes  5.0 seconds.
 Elapsed time:       0 days  0 hours  0 minutes  3.4 seconds.
 File lengths (MBytes):  RWF=      6 Int=      0 D2E=      0 Chk=      2 Scr=      1
 Normal termination of Gaussian 16 at Thu Apr 16 11:22:04 2026.
