 Entering Link 1 = C:\G16W\l1.exe PID=      1104.
  
 Copyright (c) 1988-2017, Gaussian, Inc.  All Rights Reserved.
  
 This is part of the Gaussian(R) 16 program.  It is based on
 the Gaussian(R) 09 system (copyright 2009, Gaussian, Inc.),
 the Gaussian(R) 03 system (copyright 2003, Gaussian, Inc.),
 the Gaussian(R) 98 system (copyright 1998, Gaussian, Inc.),
 the Gaussian(R) 94 system (copyright 1995, Gaussian, Inc.),
 the Gaussian 92(TM) system (copyright 1992, Gaussian, Inc.),
 the Gaussian 90(TM) system (copyright 1990, Gaussian, Inc.),
 the Gaussian 88(TM) system (copyright 1988, Gaussian, Inc.),
 the Gaussian 86(TM) system (copyright 1986, Carnegie Mellon
 University), and the Gaussian 82(TM) system (copyright 1983,
 Carnegie Mellon University). Gaussian is a federally registered
 trademark of Gaussian, Inc.
  
 This software contains proprietary and confidential information,
 including trade secrets, belonging to Gaussian, Inc.
  
 This software is provided under written license and may be
 used, copied, transmitted, or stored only in accord with that
 written license.
  
 The following legend is applicable only to US Government
 contracts under FAR:
  
                    RESTRICTED RIGHTS LEGEND
  
 Use, reproduction and disclosure by the US Government is
 subject to restrictions as set forth in subparagraphs (a)
 and (c) of the Commercial Computer Software - Restricted
 Rights clause in FAR 52.227-19.
  
 Gaussian, Inc.
 340 Quinnipiac St., Bldg. 40, Wallingford CT 06492
  
  
 ---------------------------------------------------------------
 Warning -- This program may not be used in any manner that
 competes with the business of Gaussian, Inc. or will provide
 assistance to any competitor of Gaussian, Inc.  The licensee
 of this program is prohibited from giving any competitor of
 Gaussian, Inc. access to this program.  By using this program,
 the user acknowledges that Gaussian, Inc. is engaged in the
 business of creating and licensing software in the field of
 computational chemistry and represents and warrants to the
 licensee that it is not a competitor of Gaussian, Inc. and that
 it will not use this program in any manner prohibited above.
 ---------------------------------------------------------------
  

 Cite this work as:
 Gaussian 16, Revision B.01,
 M. J. Frisch, G. W. Trucks, H. B. Schlegel, G. E. Scuseria, 
 M. A. Robb, J. R. Cheeseman, G. Scalmani, V. Barone, 
 G. A. Petersson, H. Nakatsuji, X. Li, M. Caricato, A. V. Marenich, 
 J. Bloino, B. G. Janesko, R. Gomperts, B. Mennucci, H. P. Hratchian, 
 J. V. Ortiz, A. F. Izmaylov, J. L. Sonnenberg, D. Williams-Young, 
 F. Ding, F. Lipparini, F. Egidi, J. Goings, B. Peng, A. Petrone, 
 T. Henderson, D. Ranasinghe, V. G. Zakrzewski, J. Gao, N. Rega, 
 G. Zheng, W. Liang, M. Hada, M. Ehara, K. Toyota, R. Fukuda, 
 J. Hasegawa, M. Ishida, T. Nakajima, Y. Honda, O. Kitao, H. Nakai, 
 T. Vreven, K. Throssell, J. A. Montgomery, Jr., J. E. Peralta, 
 F. Ogliaro, M. J. Bearpark, J. J. Heyd, E. N. Brothers, K. N. Kudin, 
 V. N. Staroverov, T. A. Keith, R. Kobayashi, J. Normand, 
 K. Raghavachari, A. P. Rendell, J. C. Burant, S. S. Iyengar, 
 J. Tomasi, M. Cossi, J. M. Millam, M. Klene, C. Adamo, R. Cammi, 
 J. W. Ochterski, R. L. Martin, K. Morokuma, O. Farkas, 
 J. B. Foresman, and D. J. Fox, Gaussian, Inc., Wallingford CT, 2016.
 
 ******************************************
 Gaussian 16:  EM64W-G16RevB.01 16-Dec-2017
                16-Apr-2026 
 ******************************************
 %chk=D:\APPs\lihaibei\molecules-use\twistedCH3CH3.chk
 ----------------------------
 # hf/6-31g geom=connectivity
 ----------------------------
 1/38=1,57=2,172=1/1;
 2/12=2,17=6,18=5,40=1/2;
 3/5=1,6=6,11=9,25=1,30=1/1,2,3;
 4//1;
 5/5=2,38=5/2;
 6/7=2,8=2,9=2,10=2,28=1/1;
 99/5=1,9=1/99;
 -------------------
 Title Card Required
 -------------------
 Symbolic Z-matrix:
 Charge =  0 Multiplicity = 1
 C                     0.        0.       -0.75019 
 C                     0.        0.        0.75019 
 H                    -0.73883   0.73891  -1.1453 
 H                     1.00933   0.27039  -1.1453 
 H                    -0.2705   -1.0093   -1.1453 
 H                     0.73883   0.73891   1.1453 
 H                    -1.00933   0.27039   1.1453 
 H                     0.2705   -1.0093    1.1453 
 
                          Input orientation:                          
 ---------------------------------------------------------------------
 Center     Atomic      Atomic             Coordinates (Angstroms)
 Number     Number       Type             X           Y           Z
 ---------------------------------------------------------------------
      1          6           0        0.000000    0.000000   -0.750188
      2          6           0        0.000000    0.000000    0.750188
      3          1           0       -0.738833    0.738909   -1.145301
      4          1           0        1.009330    0.270394   -1.145301
      5          1           0       -0.270497   -1.009302   -1.145301
      6          1           0        0.738833    0.738909    1.145301
      7          1           0       -1.009330    0.270394    1.145301
      8          1           0        0.270497   -1.009302    1.145301
 ---------------------------------------------------------------------
                    Distance matrix (angstroms):
                    1          2          3          4          5
     1  C    0.000000
     2  C    1.500377   0.000000
     3  H    1.117128   2.164426   0.000000
     4  H    1.117128   2.164426   1.809856   0.000000
     5  H    1.117128   2.164426   1.809856   1.809856   0.000000
     6  H    2.164426   1.117128   2.725868   2.353622   3.053170
     7  H    2.164426   1.117128   2.353622   3.053170   2.725868
     8  H    2.164426   1.117128   3.053170   2.725868   2.353622
                    6          7          8
     6  H    0.000000
     7  H    1.809856   0.000000
     8  H    1.809856   1.809856   0.000000
 Stoichiometry    C2H6
 Framework group  D3[C3(C.C),X(H6)]
 Deg. of freedom     4
 Full point group                 D3      NOp   6
 Largest Abelian subgroup         C2      NOp   2
 Largest concise Abelian subgroup C2      NOp   2
                         Standard orientation:                         
 ---------------------------------------------------------------------
 Center     Atomic      Atomic             Coordinates (Angstroms)
 Number     Number       Type             X           Y           Z
 ---------------------------------------------------------------------
      1          6           0        0.000000    0.000000    0.750188
      2          6           0        0.000000    0.000000   -0.750188
      3          1           0       -0.270497    1.009302    1.145301
      4          1           0       -0.738833   -0.738909    1.145301
      5          1           0        1.009330   -0.270394    1.145301
      6          1           0       -1.009330   -0.270394   -1.145301
      7          1           0        0.270497    1.009302   -1.145301
      8          1           0        0.738833   -0.738909   -1.145301
 ---------------------------------------------------------------------
 Rotational constants (GHZ):          76.5444647          20.4277196          20.4277196
 Standard basis: 6-31G (6D, 7F)
 There are    15 symmetry adapted cartesian basis functions of A   symmetry.
 There are    15 symmetry adapted cartesian basis functions of B   symmetry.
 There are    15 symmetry adapted basis functions of A   symmetry.
 There are    15 symmetry adapted basis functions of B   symmetry.
    30 basis functions,    68 primitive gaussians,    30 cartesian basis functions
     9 alpha electrons        9 beta electrons
       nuclear repulsion energy        42.0828311877 Hartrees.
 NAtoms=    8 NActive=    8 NUniq=    2 SFac= 4.00D+00 NAtFMM=   60 NAOKFM=F Big=F
 Integral buffers will be    131072 words long.
 Raffenetti 1 integral format.
 Two-electron integral symmetry is turned on.
 One-electron integrals computed using PRISM.
 NBasis=    30 RedAO= T EigKep=  9.52D-03  NBF=    15    15
 NBsUse=    30 1.00D-06 EigRej= -1.00D+00 NBFU=    15    15
 ExpMin= 1.61D-01 ExpMax= 3.05D+03 ExpMxC= 4.57D+02 IAcc=3 IRadAn=         5 AccDes= 0.00D+00
 Harris functional with IExCor=  205 and IRadAn=       5 diagonalized for initial guess.
 HarFok:  IExCor=  205 AccDes= 0.00D+00 IRadAn=         5 IDoV= 1 UseB2=F ITyADJ=14
 ICtDFT=  3500011 ScaDFX=  1.000000  1.000000  1.000000  1.000000
 FoFCou: FMM=F IPFlag=           0 FMFlag=      100000 FMFlg1=           0
         NFxFlg=           0 DoJE=T BraDBF=F KetDBF=T FulRan=T
         wScrn=  0.000000 ICntrl=       500 IOpCl=  0 I1Cent=   200000004 NGrid=           0
         NMat0=    1 NMatS0=      1 NMatT0=    0 NMatD0=    1 NMtDS0=    0 NMtDT0=    0
 Petite list used in FoFCou.
 Initial guess orbital symmetries:
       Occupied  (A2) (A1) (A1) (A2) (E) (E) (A1) (E) (E)
       Virtual   (A1) (E) (E) (A2) (A2) (E) (E) (A1) (E) (E) (A2)
                 (E) (E) (A1) (E) (E) (A2) (E) (E) (A1) (A2)
 The electronic state of the initial guess is 1-A1.
 Keep R1 ints in memory in symmetry-blocked form, NReq=927082.
 Requested convergence on RMS density matrix=1.00D-08 within 128 cycles.
 Requested convergence on MAX density matrix=1.00D-06.
 Requested convergence on             energy=1.00D-06.
 No special actions if energy rises.
 SCF Done:  E(RHF) =  -79.1899899079     A.U. after    9 cycles
            NFock=  9  Conv=0.15D-08     -V/T= 2.0006

 **********************************************************************

            Population analysis using the SCF Density.

 **********************************************************************

 Orbital symmetries:
       Occupied  (A1) (A2) (A1) (A2) (E) (E) (A1) (E) (E)
       Virtual   (A1) (E) (E) (A2) (E) (E) (A2) (A1) (E) (E) (E)
                 (E) (A2) (E) (E) (A1) (A2) (E) (E) (A1) (A2)
 The electronic state is 1-A1.
 Alpha  occ. eigenvalues --  -11.22031 -11.21968  -1.02366  -0.82964  -0.59574
 Alpha  occ. eigenvalues --   -0.59574  -0.51085  -0.47308  -0.47308
 Alpha virt. eigenvalues --    0.23489   0.27925   0.27925   0.29787   0.36512
 Alpha virt. eigenvalues --    0.36512   0.41314   0.72593   0.77368   0.77368
 Alpha virt. eigenvalues --    0.89123   0.89123   0.97269   1.17635   1.17635
 Alpha virt. eigenvalues --    1.18073   1.22743   1.23753   1.23753   1.28645
 Alpha virt. eigenvalues --    1.71298
          Condensed to atoms (all electrons):
               1          2          3          4          5          6
     1  C    5.181572   0.237211   0.390063   0.390063   0.390063  -0.045164
     2  C    0.237211   5.181572  -0.045164  -0.045164  -0.045164   0.390063
     3  H    0.390063  -0.045164   0.563778  -0.028545  -0.028545   0.000597
     4  H    0.390063  -0.045164  -0.028545   0.563778  -0.028545  -0.007368
     5  H    0.390063  -0.045164  -0.028545  -0.028545   0.563778   0.004024
     6  H   -0.045164   0.390063   0.000597  -0.007368   0.004024   0.563778
     7  H   -0.045164   0.390063  -0.007368   0.004024   0.000597  -0.028545
     8  H   -0.045164   0.390063   0.004024   0.000597  -0.007368  -0.028545
               7          8
     1  C   -0.045164  -0.045164
     2  C    0.390063   0.390063
     3  H   -0.007368   0.004024
     4  H    0.004024   0.000597
     5  H    0.000597  -0.007368
     6  H   -0.028545  -0.028545
     7  H    0.563778  -0.028545
     8  H   -0.028545   0.563778
 Mulliken charges:
               1
     1  C   -0.453479
     2  C   -0.453479
     3  H    0.151160
     4  H    0.151160
     5  H    0.151160
     6  H    0.151160
     7  H    0.151160
     8  H    0.151160
 Sum of Mulliken charges =   0.00000
 Mulliken charges with hydrogens summed into heavy atoms:
               1
     1  C    0.000000
     2  C    0.000000
 Electronic spatial extent (au):  <R**2>=            109.9856
 Charge=              0.0000 electrons
 Dipole moment (field-independent basis, Debye):
    X=              0.0000    Y=              0.0000    Z=              0.0000  Tot=              0.0000
 Quadrupole moment (field-independent basis, Debye-Ang):
   XX=            -15.1124   YY=            -15.1124   ZZ=            -16.0026
   XY=              0.0000   XZ=              0.0000   YZ=              0.0000
 Traceless Quadrupole moment (field-independent basis, Debye-Ang):
   XX=              0.2967   YY=              0.2967   ZZ=             -0.5935
   XY=              0.0000   XZ=              0.0000   YZ=              0.0000
 Octapole moment (field-independent basis, Debye-Ang**2):
  XXX=              0.0000  YYY=              0.7710  ZZZ=              0.0000  XYY=              0.0000
  XXY=             -0.7710  XXZ=              0.0000  XZZ=              0.0000  YZZ=              0.0000
  YYZ=              0.0000  XYZ=              0.0000
 Hexadecapole moment (field-independent basis, Debye-Ang**3):
 XXXX=            -30.1316 YYYY=            -30.1316 ZZZZ=            -93.5007 XXXY=              0.0000
 XXXZ=              0.9221 YYYX=              0.0000 YYYZ=              0.0000 ZZZX=              0.0000
 ZZZY=              0.0000 XXYY=            -10.0439 XXZZ=            -19.6173 YYZZ=            -19.6173
 XXYZ=              0.0000 YYXZ=             -0.9221 ZZXY=              0.0000
 N-N= 4.208283118766D+01 E-N=-2.678024586072D+02  KE= 7.914038316987D+01
 Symmetry A    KE= 4.083018392454D+01
 Symmetry B    KE= 3.831019924533D+01
 1|1|UNPC-WIN10-2T0259|SP|RHF|6-31G|C2H6|SDDX|16-Apr-2026|0||# hf/6-31g
  geom=connectivity||Title Card Required||0,1|C,0,0.,0.,-0.75018826|C,0
 ,0.,0.,0.75018826|H,0,-0.73883281,0.73890881,-1.14530118|H,0,1.0093302
 ,0.27039358,-1.14530118|H,0,-0.27049739,-1.00930239,-1.14530118|H,0,0.
 73883281,0.73890881,1.14530118|H,0,-1.0093302,0.27039358,1.14530118|H,
 0,0.27049739,-1.00930239,1.14530118||Version=EM64W-G16RevB.01|State=1-
 A1|HF=-79.1899899|RMSD=1.502e-009|Dipole=0.,0.,0.|Quadrupole=0.2206132
 ,0.2206132,-0.4412264,0.,0.,0.|PG=D03 [C3(C1.C1),X(H6)]||@


 This summer one third of the nation will be ill-housed
 ill-nourished and ill-clad. Only they call it a vacation.
 -- Jonas Salk
 Job cpu time:       0 days  0 hours  0 minutes  1.0 seconds.
 Elapsed time:       0 days  0 hours  0 minutes  0.8 seconds.
 File lengths (MBytes):  RWF=      6 Int=      0 D2E=      0 Chk=      1 Scr=      1
 Normal termination of Gaussian 16 at Thu Apr 16 10:52:26 2026.
