%chk=D:\APPs\lihaibei\molecules-use\tests\C2h.chk
# hf/3-21g geom=connectivity

Title Card Required

0 1
 C                  0.38424057    0.54083365    0.00000000
 C                 -0.38424057   -0.54083365    0.00000000
 H                 -1.47959386   -0.49086258    0.00000000
 F                  0.12227374   -1.79300667    0.00000000
 F                 -0.12227374    1.79300667    0.00000000
 H                  1.47959386    0.49086258    0.00000000

 1 2 2.0 5 1.0 6 1.0
 2 3 1.0 4 1.0
 3
 4
 5
 6

