%chk=D:\APPs\lihaibei\molecules-use\quiz\C2h1.chk
# hf/3-21g geom=connectivity

Title Card Required

0 1
 C                 -1.15963959   -1.43739655    0.00000000
 C                  0.15565222   -2.19655228    0.00000000
 C                  1.21681827   -1.33596248    0.00000000
 C                  0.69823513    0.01942136    0.00000000
 C                 -0.69823513   -0.01942136    0.00000000
 C                  1.15963959    1.43739655    0.00000000
 C                 -0.15565222    2.19655228    0.00000000
 C                 -1.21681827    1.33596248    0.00000000
 H                 -1.76226905   -1.68166207   -0.91010858
 H                 -1.76226905   -1.68166207    0.91010858
 H                  0.17988633   -3.28400366    0.00000000
 H                  2.27671859   -1.58725795    0.00000000
 H                  1.76226905    1.68166207    0.91010858
 H                  1.76226905    1.68166207   -0.91010858
 H                 -0.17988633    3.28400366    0.00000000
 H                 -2.27671859    1.58725795    0.00000000

 1 2 1.0 5 1.0 9 1.0 10 1.0
 2 3 2.0 11 1.0
 3 4 1.0 12 1.0
 4 5 1.5 6 1.0
 5 8 1.0
 6 7 1.0 13 1.0 14 1.0
 7 8 2.0 15 1.0
 8 16 1.0
 9
 10
 11
 12
 13
 14
 15
 16

