%chk=D:\APPs\lihaibei\molecules-use\quiz\C2v-1.chk
# hf/3-21g geom=connectivity

Title Card Required

0 1
 C                  0.00000000    1.11852195    0.34875283
 C                  0.00000000    0.72430830   -0.97330696
 C                  0.00000000   -0.72430830   -0.97330696
 C                  0.00000000   -1.11852195    0.34875283
 O                  0.00000000    0.00000000    1.18254639
 H                  0.00000000    2.06905649    0.87262808
 H                  0.00000000    1.35731553   -1.85548883
 H                  0.00000000   -1.35731553   -1.85548883
 H                  0.00000000   -2.06905649    0.87262808

 1 2 2.0 5 1.0 6 1.0
 2 3 1.0 7 1.0
 3 4 2.0 8 1.0
 4 5 1.0 9 1.0
 5
 6
 7
 8
 9

