%chk=D:\APPs\lihaibei\molecules-use\quiz\C2v-3.chk
# hf/3-21g geom=connectivity

Title Card Required

0 1
 C                  0.00000000    1.24800917   -0.26055975
 C                  0.00000000    0.00000000    0.58438471
 H                  0.00000000    2.15741634    0.38736155
 H                  0.90487584    1.28054653   -0.91445404
 H                 -0.90487584    1.28054653   -0.91445404
 C                  0.00000000   -1.24800917   -0.26055975
 H                  0.90237958   -0.00000000    1.25175094
 H                 -0.90237958   -0.00000000    1.25175094
 H                  0.00000000   -2.15741634    0.38736155
 H                 -0.90487584   -1.28054653   -0.91445404
 H                  0.90487584   -1.28054653   -0.91445404

 1 2 1.0 3 1.0 4 1.0 5 1.0
 2 6 1.0 7 1.0 8 1.0
 3
 4
 5
 6 9 1.0 10 1.0 11 1.0
 7
 8
 9
 10
 11

