%chk=D:\APPs\lihaibei\molecules-use\tests\C2v.chk
# hf/3-21g geom=connectivity

Title Card Required

0 1
 C                  0.00000000    0.66294974    0.58114672
 C                  0.00000000   -0.66294974    0.58114672
 H                  0.00000000    1.25653814    1.50518254
 H                  0.00000000   -1.25653814    1.50518254
 F                  0.00000000   -1.39261093   -0.55468232
 F                 -0.00000000    1.39261093   -0.55468232

 1 2 2.0 3 1.0 6 1.0
 2 4 1.0 5 1.0
 3
 4
 5
 6

