%chk=D:\APPs\lihaibei\molecules-use\tests\C3V.chk
# hf/3-21g geom=connectivity

Title Card Required

0 1
 C                  0.00000000    1.43745092    0.09865150
 C                  0.00000000    0.00000000   -0.37699048
 H                  0.00000000    0.00000000   -1.50442302
 H                  0.90702531    1.97039102   -0.27544986
 H                 -0.90702531    1.97039102   -0.27544986
 H                  0.00000000    1.48102809    1.21444601
 C                 -1.24486902   -0.71872546    0.09865150
 C                  1.24486902   -0.71872546    0.09865150
 H                 -1.25289602   -1.77070247   -0.27544986
 H                 -1.28260795   -0.74051404    1.21444601
 H                 -2.15992133   -0.19968855   -0.27544986
 H                  1.28260795   -0.74051404    1.21444601
 H                  1.25289602   -1.77070247   -0.27544986
 H                  2.15992133   -0.19968855   -0.27544986

 1 2 1.0 4 1.0 5 1.0 6 1.0
 2 7 1.0 8 1.0 3 1.0
 3
 4
 5
 6
 7 9 1.0 10 1.0 11 1.0
 8 12 1.0 13 1.0 14 1.0
 9
 10
 11
 12
 13
 14

