%chk=D:\APPs\lihaibei\molecules-use\tests\Cs2.chk
# hf/3-21g geom=connectivity

Title Card Required

0 1
 C                 -1.18155638   -0.19320427    0.00000000
 C                 -0.01267006    0.43270147    0.00000000
 H                 -2.14103955    0.34119392    0.00000000
 H                 -1.26868403   -1.28800590    0.00000000
 H                  0.07445760    1.52750310    0.00000000
 F                  1.16673607   -0.22418603    0.00000000

 1 2 2.0 3 1.0 4 1.0
 2 5 1.0 6 1.0
 3
 4
 5
 6

