%chk=D:\APPs\lihaibei\molecules-use\quiz\D2.chk
# hf/3-21g geom=connectivity

Title Card Required

0 1
 C                 -0.00000000    0.73091858   -0.00000000
 C                  1.13386350    1.44126316    0.42002529
 C                  1.13106091    2.83454843    0.42031369
 C                 -0.00000000    3.53404148   -0.00000000
 C                 -1.13106091    2.83454843   -0.42031369
 C                 -1.13386350    1.44126316   -0.42002529
 C                  0.00000000   -0.73091858   -0.00000000
 C                  1.13386350   -1.44126316   -0.42002529
 C                  1.13106091   -2.83454843   -0.42031369
 C                  0.00000000   -3.53404148   -0.00000000
 C                 -1.13106091   -2.83454843    0.42031369
 C                 -1.13386350   -1.44126316    0.42002529
 H                  2.02629049    0.89315125    0.75763484
 H                  2.02402972    3.38295184    0.75446316
 H                 -0.00000000    4.63358911   -0.00000000
 H                 -2.02402972    3.38295184   -0.75446316
 H                 -2.02629049    0.89315125   -0.75763484
 H                  2.02629049   -0.89315125   -0.75763484
 H                  2.02402972   -3.38295184   -0.75446316
 H                  0.00000000   -4.63358911   -0.00000000
 H                 -2.02402972   -3.38295184    0.75446316
 H                 -2.02629049   -0.89315125    0.75763484

 1 2 1.5 6 1.5 7 1.0
 2 3 1.5 13 1.0
 3 4 1.5 14 1.0
 4 5 1.5 15 1.0
 5 6 1.5 16 1.0
 6 17 1.0
 7 8 1.5 12 1.5
 8 9 1.5 18 1.0
 9 10 1.5 19 1.0
 10 11 1.5 20 1.0
 11 12 1.5 21 1.0
 12 22 1.0
 13
 14
 15
 16
 17
 18
 19
 20
 21
 22

