%chk=D:\APPs\lihaibei\molecules-use\quiz\D2h.chk
# hf/3-21g geom=connectivity

Title Card Required

0 1
 C                 -3.64978730   -0.71281101    0.00000000
 C                 -2.47338980   -1.40437566    0.00000000
 C                 -1.21761734   -0.71439782    0.00000000
 C                 -1.21761734    0.71439782   -0.00000000
 C                 -2.47338980    1.40437566   -0.00000000
 C                 -3.64978730    0.71281101   -0.00000000
 C                  0.00000000   -1.40362211    0.00000000
 C                 -0.00000000    1.40362211    0.00000000
 C                  1.21761734    0.71439782    0.00000000
 C                  1.21761734   -0.71439782   -0.00000000
 C                  2.47338980   -1.40437566   -0.00000000
 H                  2.45963090   -2.50476961    0.00000000
 C                  3.64978730   -0.71281101   -0.00000000
 C                  3.64978730    0.71281101    0.00000000
 C                  2.47338980    1.40437566    0.00000000
 H                  0.00000000   -2.50457718    0.00000000
 H                 -4.61564730   -1.23921503    0.00000000
 H                 -2.45963090   -2.50476961    0.00000000
 H                 -2.45963090    2.50476961    0.00000000
 H                 -4.61564730    1.23921503   -0.00000000
 H                 -0.00000000    2.50457718    0.00000000
 H                  4.61564730   -1.23921503   -0.00000000
 H                  4.61564730    1.23921503    0.00000000
 H                  2.45963090    2.50476961   -0.00000000

 1 2 2.0 6 1.5 17 1.0
 2 3 1.5 18 1.0
 3 4 1.5 7 1.5
 4 5 1.5 8 1.5
 5 6 2.0 19 1.0
 6 20 1.0
 7 10 1.5 16 1.0
 8 9 1.5 21 1.0
 9 10 1.5 15 1.5
 10 11 1.5
 11 12 1.0 13 2.0
 12
 13 14 1.5 22 1.0
 14 15 2.0 23 1.0
 15 24 1.0
 16
 17
 18
 19
 20
 21
 22
 23
 24

