%chk=D:\APPs\lihaibei\molecules-use\quiz\D3d.chk
# hf/3-21g geom=connectivity

Title Card Required

0 1
 C                  0.00000000    1.44482140   -0.22810126
 C                 -1.25125204    0.72241070    0.22810126
 C                 -1.25125204   -0.72241070   -0.22810126
 C                 -0.00000000   -1.44482140    0.22810126
 C                  1.25125204   -0.72241070   -0.22810126
 C                  1.25125204    0.72241070    0.22810126
 H                 -2.15636062   -1.24497539    0.17609354
 H                 -1.31303789    0.75808278    1.34823193
 H                 -2.15636062    1.24497539   -0.17609354
 H                 -0.00000000    1.51616556   -1.34823193
 H                 -0.00000000    2.48995077    0.17609354
 H                  0.00000000   -1.51616556    1.34823193
 H                  0.00000000   -2.48995077   -0.17609354
 H                  2.15636062   -1.24497539    0.17609354
 H                  1.31303789   -0.75808278   -1.34823193
 H                  1.31303789    0.75808278    1.34823193
 H                  2.15636062    1.24497539   -0.17609354
 H                 -1.31303789   -0.75808278   -1.34823193

 1 2 1.0 6 1.0 11 1.0 10 1.0
 2 3 1.0 8 1.0 9 1.0
 3 4 1.0 7 1.0 18 1.0
 4 5 1.0 12 1.0 13 1.0
 5 6 1.0 14 1.0 15 1.0
 6 17 1.0 16 1.0
 7
 8
 9
 10
 11
 12
 13
 14
 15
 16
 17
 18

