%chk=D:\APPs\lihaibei\molecules-use\tests\D3h.chk
# hf/3-21g geom=connectivity

Title Card Required

0 1
 C                  0.00000000    0.86663305   -0.00000000
 C                 -0.75052624   -0.43331653   -0.00000000
 C                  0.75052624   -0.43331653   -0.00000000
 H                  0.00000000    1.48627632   -0.91385800
 H                  0.00000000    1.48627632    0.91385800
 H                 -1.28715305   -0.74313816   -0.91385800
 H                 -1.28715305   -0.74313816    0.91385800
 H                  1.28715305   -0.74313816    0.91385800
 H                  1.28715305   -0.74313816   -0.91385800

 1 2 1.0 3 1.0 4 1.0 5 1.0
 2 3 1.0 6 1.0 7 1.0
 3 8 1.0 9 1.0
 4
 5
 6
 7
 8
 9

