%chk=D:\APPs\lihaibei\molecules-use\quiz\D6h.chk
# hf/3-21g geom=connectivity

Title Card Required

0 1
 C                 -0.68444198    3.67907288    0.00000000
 C                 -1.41889714    2.45760193   -0.00000000
 C                 -0.71456145    1.23765674    0.00000000
 C                  0.71456145    1.23765674    0.00000000
 C                  1.41889714    2.45760193   -0.00000000
 C                  0.68444198    3.67907288   -0.00000000
 C                 -1.42912290    0.00000000    0.00000000
 C                  1.42912290    0.00000000    0.00000000
 C                  0.71456145   -1.23765674    0.00000000
 C                 -0.71456145   -1.23765674    0.00000000
 C                  1.41889714   -2.45760193   -0.00000000
 C                  2.84394959   -2.43228058    0.00000000
 C                  3.52839157   -1.24679230    0.00000000
 C                  2.83779427    0.00000000   -0.00000000
 C                  3.52839157    1.24679230    0.00000000
 C                  2.84394959    2.43228058    0.00000000
 H                  3.38312959    3.39195178    0.00000000
 H                  4.62908120    1.23390028    0.00000000
 H                 -1.24595161    4.62585206    0.00000000
 H                  1.24595161    4.62585206   -0.00000000
 H                  3.38312959   -3.39195178    0.00000000
 H                  4.62908120   -1.23390028    0.00000000
 C                 -2.84394959    2.43228058    0.00000000
 C                 -3.52839157    1.24679230    0.00000000
 C                 -2.83779427    0.00000000   -0.00000000
 H                 -3.38312959    3.39195178    0.00000000
 H                 -4.62908120    1.23390028    0.00000000
 C                 -3.52839157   -1.24679230    0.00000000
 C                 -2.84394959   -2.43228058    0.00000000
 C                 -1.41889714   -2.45760193   -0.00000000
 H                 -4.62908120   -1.23390028    0.00000000
 H                 -3.38312959   -3.39195178    0.00000000
 C                  0.68444198   -3.67907288    0.00000000
 H                  1.24595161   -4.62585206    0.00000000
 C                 -0.68444198   -3.67907288    0.00000000
 H                 -1.24595161   -4.62585206    0.00000000

 1 2 1.5 6 2.0 19 1.0
 2 3 1.5 23 1.5
 3 4 1.5 7 1.5
 4 5 1.5 8 1.5
 5 6 1.5 16 1.5
 6 20 1.0
 7 10 1.5 25 1.5
 8 9 1.5 14 1.5
 9 10 1.5 11 1.5
 10 30 1.5
 11 12 1.5 33 1.5
 12 13 2.0 21 1.0
 13 14 1.5 22 1.0
 14 15 1.5
 15 16 2.0 18 1.0
 16 17 1.0
 17
 18
 19
 20
 21
 22
 23 24 2.0 26 1.0
 24 25 1.5 27 1.0
 25 28 1.5
 26
 27
 28 29 2.0 31 1.0
 29 30 1.5 32 1.0
 30 35 1.5
 31
 32
 33 34 1.0 35 2.0
 34
 35 36 1.0
 36

