%chk=D:\APPs\lihaibei\molecules-use\tests\Oh.chk
# hf/3-21g geom=connectivity

Title Card Required

0 1
 Fe                 0.00000000    0.00000000    0.00000000
 F                  0.00000000    0.00000000    1.74000000
 F                  0.00000000   -1.74000000   -0.00000000
 F                  1.74000000    0.00000000   -0.00000000
 F                 -0.00000000    0.00000000   -1.74000000
 F                 -1.74000000    0.00000000    0.00000000
 F                  0.00000000    1.74000000    0.00000000

 1 2 1.0 3 1.0 4 1.0 5 1.0 6 1.0 7 1.0
 2
 3
 4
 5
 6
 7

