%chk=D:\APPs\lihaibei\molecules-use\quiz\Td.chk
# hf/3-21g geom=connectivity

Title Card Required

0 1
 Si                -0.00000000    0.00000000   -0.00000000
 C                 -0.00000000   -0.00000000    1.94000006
 H                  0.87364980   -0.50440195    2.29666647
 H                 -0.00000000    1.00880390    2.29666647
 H                 -0.87364980   -0.50440195    2.29666647
 C                 -0.00000000   -1.82904960   -0.64666669
 H                 -0.87364980   -2.33345190   -0.29000077
 H                 -0.00000000   -1.82904995   -1.71666492
 H                  0.87364980   -2.33345190   -0.29000077
 C                 -1.58400342    0.91452480   -0.64666669
 H                 -1.58400372    1.92332887   -0.29000077
 H                 -1.58400372    0.91452497   -1.71666492
 H                 -2.45765352    0.41012303   -0.29000077
 C                  1.58400342    0.91452480   -0.64666669
 H                  2.45765352    0.41012303   -0.29000077
 H                  1.58400372    0.91452497   -1.71666492
 H                  1.58400372    1.92332887   -0.29000077

 1 2 1.0 6 1.0 10 1.0 14 1.0
 2 3 1.0 4 1.0 5 1.0
 3
 4
 5
 6 7 1.0 8 1.0 9 1.0
 7
 8
 9
 10 11 1.0 12 1.0 13 1.0
 11
 12
 13
 14 15 1.0 16 1.0 17 1.0
 15
 16
 17

